# C nanotube of type zigzag (0,9); radiu
    1.000000000000000     
    14.2910187481300657    0.0000000000001331   -0.0000000000000000
     7.1455093740152620   12.3763852818252484    0.0000000000000000
    -0.0000000000000000    0.0000000000000000   17.0823991039507916
   C 
   144
Direct
  0.6790358859430859  0.5006879427267571  0.1122208181645275
  0.6845366178136492  0.4856980860732190  0.0333228664475055
  0.6122346284604313  0.6147703900309212  0.2340948308377052
  0.6361941940335185  0.6097042282594998  0.1523850562021179
  0.5321481746240665  0.6840171055887987  0.1083099173994819
  0.5433736870968120  0.6841484334249185  0.0310638956597560
  0.4314274712513746  0.7491070273935122  0.2228843434974098
  0.4383498303029555  0.7234903089910322  0.1439950190361030
  0.3293410293969924  0.7725388710082396  0.1062637931987417
  0.3386967242511178  0.7857767696499940  0.0252013817663375
  0.2524433939529092  0.7805688070130289  0.2183144402856850
  0.2249393230425257  0.7950793276734122  0.1380037977910483
  0.1731614733839476  0.7597395910212895  0.0854253117965964
  0.1843604840841029  0.7602576685340906 -0.0018608771779262
  0.1629903102217708  0.6713442474406163  0.2281403148427891
  0.1440392589726325  0.6907761107480829  0.1297589121793658
  0.1743677173299379  0.5923931857119972  0.0769472243033605
  0.1799628112868855  0.5935388987087349 -0.0070081349623341
  0.1843096477983173  0.4976356773820544  0.1903968416950066
  0.2068326076632155  0.4857933001574790  0.1012307047779105
  0.2671293734400462  0.3874316241615535  0.0856705525632032
  0.2767946912209250  0.3877920468732881  0.0036720821788093
  0.3420177843202036  0.3278093633172353  0.2170890487177742
  0.3525518535136743  0.3035062920589580  0.1280432889124246
  0.4411579813958731  0.2345337315504305  0.0906748149027150
  0.4503500693255619  0.2335531338251829  0.0022383957887302
  0.5402046040950486  0.2118115623532924  0.2165641427550437
  0.5476935217199924  0.1865459456076896  0.1345264857911939
  0.6480917254323898  0.1821724742486696  0.0928360668456053
  0.6404337355925499  0.1946304314945702  0.0130505781708490
  0.6586084871097838  0.2594383832567861  0.2231650597632703
  0.6848255935823891  0.2437115340292845  0.1368354374445595
  0.7404446867491027  0.3013638966389284  0.1099343381287525
  0.7776836961604220  0.2830248088290095  0.0096947528592124
  0.7084615557923297  0.4146893109883031  0.2307519358210788
  0.7559898370266678  0.3942633270622397  0.1507806552084445
  0.6893709702219736  0.5078605173928696  0.3616468839618065
  0.6953185941715234  0.4969684669135135  0.2688247795581635
  0.6284591867847472  0.6325427253265993  0.4708876128592310
  0.6319927409615466  0.6044304778482253  0.3978655657754003
  0.5228700421898992  0.7016317736960662  0.3568425405697024
  0.5213683836444123  0.7070665725286894  0.2740035715760555
  0.4449738411112173  0.7500964883435637  0.4808130424776573
  0.4251334127042183  0.7502142140200915  0.3979393306692592
  0.3336417780001259  0.7934296418891613  0.3459643529727244
  0.3002504943547046  0.8269262914165800  0.2583640364824246
  0.2713019709753519  0.7390288714739788  0.4734429184252461
  0.2468416838318191  0.7641813570783004  0.3927629211109088
  0.1641086388580928  0.7558499386986758  0.3582676032514233
  0.2030344375216340  0.7255894420311993  0.2617308179589160
  0.1069999771965110  0.7146160820374262  0.4594424499806575
  0.1368518525740125  0.6696982247588065  0.3650201654067011
  0.1181694354368959  0.5916555275416591  0.3336228478998315
  0.1457531707779178  0.5977613478698705  0.2439303698003593
  0.1811756004257305  0.4867053384174868  0.4677486731462319
  0.1778408716757305  0.4978440040016303  0.3826771775181071
  0.2465632893051904  0.4165937285507881  0.3395455572805878
  0.2552074723986732  0.4023153754306081  0.2532662007503722
  0.3114939415206889  0.3231658398242324  0.4650244533413612
  0.3326659719365401  0.3321507257882654  0.3769018704806641
  0.4315731928882864  0.2915623129001652  0.3364843030055277
  0.4250133215652600  0.2794653974345097  0.2540882203023649
  0.5239601187889852  0.2096091764338724  0.4546645633119249
  0.5270267202593830  0.2362500552996818  0.3808162488887244
  0.6191589649369019  0.2096813215356731  0.3447787862096769
  0.6237246425137150  0.2166438279546348  0.2677597598167701
  0.6993477662185843  0.2278788741420361  0.4770164374994272
  0.6988968119305914  0.2343210114784343  0.3963799341925385
  0.7236637425583498  0.3025969782325028  0.3413180476296166
  0.7162927606620353  0.3184579814277414  0.2686926050311558
  0.7253226949284566  0.3899140241088919  0.4691068616360651
  0.7186275579776589  0.3918941900825402  0.3820208438750700
  0.7092476152910830  0.4772559763887499  0.5872868247244468
  0.6936447324213010  0.4922237628423036  0.5177856793439746
  0.6522749805916535  0.6005026112206135  0.7239280705010932
  0.6561610543940929  0.5871295786691934  0.6250491775020471
  0.5566367621478440  0.6991506040806407  0.6084527751857965
  0.5480357879911202  0.7054451177280017  0.5337917391500281
  0.4465587045860475  0.7558359264618144  0.7500849404335118
  0.4522810984026108  0.7541433170031845  0.6508018368843485
  0.3453707435042012  0.7742496880068669  0.6084534486285716
  0.3451427185637179  0.7686636364963342  0.5235608983577421
  0.2437137214736592  0.7961873814559872  0.7173959135619523
  0.2537426197373149  0.7648083548376995  0.6397608116444535
  0.1492382055575287  0.7536932932246609  0.5809028899466278
  0.1694780434780318  0.7515082173554859  0.4987425979393656
  0.1325510545773658  0.7025678511882145  0.7158653615581060
  0.1097029336792341  0.6922937745268564  0.6293470311211216
  0.1367420362558661  0.5900876147556503  0.5887440207381074
  0.1277343581322824  0.5963708565111623  0.4999961108528569
  0.1765405143658272  0.4775436556525647  0.7147056671166098
  0.1824379640920634  0.4897582550371260  0.6314284520491722
  0.2418609185571231  0.3920201535367230  0.5988433256553036
  0.2358542905159294  0.3933921109580939  0.5160331660137925
  0.3637705667457609  0.3015545063824041  0.7050102230119456
  0.3548024013253302  0.2954531540637043  0.6293616972204050
  0.4319114125034619  0.2559365916950748  0.5789578602349523
  0.4069771791814644  0.2823616556159107  0.5000494298220980
  0.5669036106887048  0.1699093956738162  0.7156464814919986
  0.5474819894998980  0.1817033882624694  0.6351362190222303
  0.6384324107081264  0.1985999675932532  0.5836485750680878
  0.6096779002393067  0.2013694836390560  0.4966596584831893
  0.6795885487348554  0.2531296871235167  0.7179058152623755
  0.6861286621470906  0.2287216436362774  0.6353311185810979
  0.6922107062830866  0.3263640870612446  0.5997034670925178
  0.7113684412773457  0.3230444466509732  0.5202789668078588
  0.7316729392414164  0.3956364697476455  0.7505116800146493
  0.6707338770699549  0.4230285230086002  0.6361550659582829
  0.7264328123442133  0.4916324995457976  0.8479017180206191
  0.7245930548174362  0.5004269035453159  0.7595583668691001
  0.6598896117952817  0.5862577976492818  0.9597861883425881
  0.6802701517879769  0.6078334383760093  0.8844312915194661
  0.5673434596656166  0.6723495770925924  0.8518856622048450
  0.5485588207181529  0.6809531327974884  0.7681622627283308
  0.4553224347021608  0.7253133487016508  0.9905778750361935
  0.4721373504378522  0.7246743009654691  0.9021307558751963
  0.3790921608102599  0.7692393553390906  0.8512815370282965
  0.3318975498518704  0.7919375409019611  0.7736903533227357
  0.2632577776256879  0.7751426430737887  0.9618842813745124
  0.2920171110663819  0.7635813793035261  0.8813870676465307
  0.2373710413459675  0.7203788198336466  0.8309098014695276
  0.1864427852485059  0.7441198606487702  0.7592881258347178
  0.1650954806470230  0.6954069828697338  0.9537931737049449
  0.1886713173421153  0.6657230374809928  0.8722436722382464
  0.1626702495135842  0.5819385167782276  0.8296641296932818
  0.1436472876592869  0.6013495809267302  0.7543968475833790
  0.1851440126111482  0.4985996178991422  0.9587766318709339
  0.1878734503996285  0.4881905399920989  0.8781163363285649
  0.2736995489691078  0.3880966994531158  0.8243605542474296
  0.2717754500906807  0.3998154040177275  0.7396698149556354
  0.3527859545535242  0.3210290417323368  0.9571413320485300
  0.3544221433556796  0.3299629661880734  0.8739699316992424
  0.4600773709544472  0.2558652355680192  0.8338611095807708
  0.4633291348004145  0.2446454751896697  0.7512356614562304
  0.5404943978219481  0.2155588764390378  0.9612302708713514
  0.5412640726634715  0.1933116496978241  0.8689731229508650
  0.6436516955681171  0.1739756461266629  0.8486806952888837
  0.6605245360541238  0.1800220669297389  0.7639260004453972
  0.7093572807708207  0.2172843867465421  0.9719592472050504
  0.6874036342842070  0.2416610019857351  0.8951472954689673
  0.7277964913636782  0.3045496708998028  0.8651428297224412
  0.7276718302204324  0.2952721575341821  0.7624347806615671
  0.7333313045457910  0.3779779052077663  0.9689283477203707
  0.7287481672884191  0.4121168546746753  0.8911228155214521
 
 -0.11512026E-02  0.10096956E-01  0.16432563E-02
  0.19290041E-02 -0.12627557E-01 -0.22293757E-01
  0.97965038E-02  0.70579366E-02  0.19990306E-02
 -0.29631629E-01 -0.36179382E-01 -0.18222377E-01
 -0.98547070E-02 -0.78674710E-02  0.33670653E-01
  0.18725455E-02  0.23502219E-01  0.23422176E-02
  0.39434625E-02 -0.19653441E-02  0.11239561E-01
 -0.68924556E-02 -0.33421253E-01 -0.11933537E-01
 -0.21479028E-01  0.11959390E-01 -0.24642474E-01
 -0.11447953E-01  0.10275097E-01 -0.11799894E-01
 -0.11299453E-01  0.69285543E-02 -0.47692931E-02
 -0.14572526E-01  0.49011865E-02  0.48903648E-01
 -0.16286556E-01  0.25552849E-01 -0.23902994E-01
 -0.33891967E-02  0.16168064E-01  0.54276426E-02
  0.15976839E-01  0.40326739E-01 -0.23825560E-01
  0.33580824E-02 -0.12685701E-01  0.39278852E-01
 -0.14008954E-01 -0.44020076E-02 -0.72475031E-01
 -0.28491368E-01 -0.46121868E-01  0.39791101E-01
 -0.41795564E-01 -0.31486546E-01 -0.14134279E-01
  0.11011757E-01 -0.10924919E-01 -0.25057694E-02
 -0.53092690E-01 -0.13011000E-01 -0.36754113E-01
 -0.22007544E-01  0.93996960E-03  0.17685805E-01
 -0.10177753E-01 -0.39654625E-02 -0.22234201E-01
 -0.14644948E-01  0.10780096E-01  0.18679689E-01
  0.78458098E-03  0.20515897E-01 -0.72606279E-02
 -0.22741283E-02  0.22406435E-01 -0.12848793E-01
 -0.72358047E-02  0.11268270E-01 -0.24324140E-01
  0.49396771E-01 -0.33714487E-03 -0.20511189E-01
 -0.16930915E-01 -0.12992524E-02 -0.77578965E-02
  0.18704462E-01 -0.18699971E-01 -0.17997063E-01
  0.48574687E-01  0.13943099E-01  0.11269997E-01
 -0.64007545E-02  0.22451562E-01  0.11599196E-01
 -0.76422026E-02 -0.65981704E-02  0.24007133E-02
 -0.24810247E-01  0.18099147E-01  0.88841639E-03
  0.80829255E-02  0.18824376E-02 -0.13797955E-01
  0.90418779E-02 -0.33252238E-01  0.11634813E-01
 -0.13559870E-01 -0.19554974E-01 -0.70976191E-02
 -0.81331278E-02  0.24761256E-01  0.25275508E-01
  0.11845635E-02 -0.18286852E-01 -0.22350958E-01
  0.15919996E-01  0.15451946E-01  0.24596723E-01
 -0.28875030E-01 -0.27433317E-01  0.11046555E-01
 -0.14762815E-01  0.14113610E-01 -0.78459626E-02
  0.16984726E-01 -0.16412122E-01  0.16743458E-01
 -0.80287944E-02  0.23407975E-01 -0.67563577E-02
  0.57670693E-02 -0.31620409E-01 -0.22448403E-01
 -0.83235822E-02 -0.58878676E-02  0.16658881E-01
  0.23626425E-01  0.10670917E-01  0.20304711E-02
 -0.47606936E-02 -0.22154593E-01 -0.30476371E-01
 -0.33413219E-02 -0.26273389E-01 -0.11573023E-01
  0.30744571E-01  0.57767298E-02 -0.16767231E-02
 -0.17180457E-01 -0.10452778E-01  0.14657275E-01
  0.62943152E-02 -0.72889831E-02  0.43123387E-01
 -0.45645238E-02 -0.14581494E-03  0.10221304E-02
 -0.14351642E-01  0.19111846E-01  0.12803957E-02
  0.11242372E-01 -0.87793139E-02  0.28809202E-01
 -0.12704561E-01 -0.10405050E-01  0.24479497E-01
 -0.81336605E-02 -0.55486932E-02  0.10227551E-01
  0.31052489E-01  0.98190617E-02 -0.14093619E-01
  0.23143689E-03 -0.14409984E-02  0.16686190E-01
 -0.14414287E-01  0.13182261E-01  0.52299285E-03
  0.71418071E-03  0.24381456E-01  0.23303528E-04
 -0.11799810E-02  0.14014075E-01  0.24708800E-01
  0.18144058E-02  0.18421269E-01  0.97447614E-02
 -0.98228669E-02 -0.15125845E-01 -0.29871696E-01
 -0.32687632E-01 -0.14517319E-01  0.12468359E-02
  0.20798583E-01 -0.20423067E-01  0.33395539E-02
  0.10717479E-01  0.26095961E-02 -0.32043525E-02
 -0.10176900E-01 -0.41400019E-01 -0.17209951E-01
  0.19336130E-02 -0.31771437E-01  0.21005238E-01
 -0.30085270E-01 -0.14379112E-01  0.94523882E-02
 -0.20993657E-01 -0.56904665E-02 -0.12779911E-01
 -0.40982075E-01  0.14006760E-01 -0.41686733E-01
 -0.11502366E-01 -0.19938117E-01  0.14260580E-01
  0.23824097E-01 -0.63983256E-02  0.18832253E-01
 -0.95055711E-03 -0.12981606E-01 -0.25604701E-01
 -0.29150506E-01 -0.22667519E-02  0.29974490E-01
 -0.18963320E-01  0.57875777E-02  0.24221913E-01
  0.84916440E-02 -0.33529155E-01 -0.12429387E-02
 -0.35702654E-02  0.12753935E-01 -0.27442619E-01
 -0.17677621E-01 -0.21984880E-01  0.23120560E-01
  0.16663049E-01  0.96984593E-03 -0.16390918E-02
 -0.20464462E-01 -0.74515372E-02  0.23203987E-01
 -0.13324883E-01 -0.24592414E-01  0.21550416E-01
 -0.72781723E-04  0.14943231E-01  0.24092415E-01
  0.38112787E-01 -0.14148888E-03 -0.17223160E-01
  0.28476930E-02 -0.65340976E-02  0.23229167E-01
 -0.38547003E-01  0.24024068E-01  0.18502988E-02
 -0.14736517E-01  0.49572692E-02  0.10799451E-01
  0.24038876E-01 -0.11575443E-01  0.29036441E-01
  0.74867970E-03  0.21742570E-01 -0.50656408E-02
 -0.88393882E-02  0.21904382E-01 -0.26805403E-01
  0.40727795E-01  0.67698310E-02 -0.31814048E-01
 -0.12715806E-01 -0.11507201E-01  0.78585032E-02
 -0.19929603E-01  0.38589285E-02  0.34358135E-02
 -0.10193251E-01  0.27201329E-01  0.13703301E-01
  0.19738002E-01  0.42317234E-02 -0.46629399E-01
  0.12934696E-01 -0.57228441E-02  0.55135096E-02
  0.16832537E-01 -0.23491242E-01  0.45439323E-01
  0.25381672E-01  0.18192960E-01 -0.25577164E-01
  0.21217150E-02 -0.59669661E-02  0.19291648E-02
  0.71061826E-02 -0.83879088E-02  0.11945779E-02
  0.23368983E-01 -0.32494284E-01 -0.14581399E-01
 -0.43584772E-01  0.68217351E-02 -0.32806398E-01
  0.89339313E-02  0.36146208E-03 -0.44014579E-02
 -0.25931596E-01 -0.29553806E-02  0.24246752E-01
  0.24922837E-01  0.85808220E-03 -0.47669086E-01
 -0.57278326E-02 -0.59885260E-02 -0.27645969E-01
  0.14195304E-03 -0.49769972E-01 -0.79153726E-02
  0.14475353E-01 -0.14031106E-01 -0.21218138E-01
 -0.46782884E-02  0.49194697E-03 -0.19270316E-01
  0.18924538E-01  0.14696873E-01 -0.37846614E-02
 -0.14044897E-01  0.16153333E-01 -0.37253963E-02
  0.22115447E-01 -0.34786204E-02 -0.64445242E-01
 -0.13809097E-01 -0.37734112E-02 -0.17644605E-03
  0.47481325E-02  0.14981810E-01 -0.31334515E-01
 -0.18640876E-01  0.23078483E-01  0.94071666E-02
 -0.79059163E-02 -0.28965293E-01  0.21283954E-01
  0.75648033E-02  0.11042041E-01  0.17215422E-01
  0.21162501E-01  0.19359340E-01 -0.98097787E-02
 -0.26817955E-01 -0.27486439E-01  0.39633599E-02
  0.49747513E-02  0.31458462E-01 -0.29157748E-02
  0.26640278E-01  0.54535777E-03  0.11501616E-01
  0.24090375E-01 -0.19458746E-01  0.39593344E-01
 -0.12954733E-01 -0.29389104E-01  0.35456199E-02
 -0.22027354E-01 -0.44362865E-02 -0.28414914E-02
 -0.20910602E-02 -0.16585925E-01 -0.13296416E-03
 -0.85337603E-02  0.12664394E-01 -0.13813246E-01
  0.39228015E-02 -0.67285625E-02 -0.12848195E-02
 -0.58611178E-02 -0.16323631E-01  0.23878538E-01
  0.44197717E-02 -0.25362795E-01 -0.17274734E-02
  0.33592753E-02  0.25309064E-01 -0.26834900E-01
 -0.28033947E-01  0.10771124E-01 -0.29049058E-01
 -0.80876612E-02 -0.68820232E-02  0.16601522E-01
  0.13669471E-01 -0.63708907E-02  0.18211717E-01
 -0.86179548E-02 -0.11801327E-01  0.27528484E-01
  0.22626848E-02 -0.98498306E-02 -0.14797536E-01
 -0.27340226E-01 -0.15820018E-02 -0.24641576E-03
  0.71688079E-02 -0.58183843E-02 -0.10642422E-01
  0.29335163E-01 -0.20273694E-01  0.19230836E-01
 -0.67699781E-04  0.50829323E-02 -0.31297190E-01
  0.18327725E-01 -0.19536544E-01 -0.26150462E-02
 -0.37649792E-03 -0.66272526E-02  0.11463053E-01
  0.71052012E-02  0.51601209E-02 -0.59987510E-02
 -0.24783703E-02  0.88482007E-02  0.21803957E-01
 
            1
    1.000000000000000     
  0.10000000E+01  0.00000000E+00  0.00000000E+00  0.00000000E+00
  0.67854742E+00  0.50150377E+00  0.11231701E+00
  0.68518175E+00  0.48467779E+00  0.32017795E-01
  0.61263499E+00  0.61534066E+00  0.23421185E+00
  0.63558238E+00  0.60678097E+00  0.15131832E+00
  0.53177644E+00  0.68338142E+00  0.11028099E+00
  0.54255524E+00  0.68604739E+00  0.31201009E-01
  0.43178281E+00  0.74894823E+00  0.22354231E+00
  0.43921774E+00  0.72078990E+00  0.14329643E+00
  0.32735490E+00  0.77350518E+00  0.10482123E+00
  0.33748056E+00  0.78660699E+00  0.24510618E-01
  0.25137282E+00  0.78112863E+00  0.21803525E+00
  0.22372162E+00  0.79547534E+00  0.14086661E+00
  0.17098951E+00  0.76180424E+00  0.84026036E-01
  0.18347015E+00  0.76156403E+00  0.99845686E+00
  0.16247909E+00  0.67460261E+00  0.22674557E+00
  0.14478673E+00  0.68975112E+00  0.13205829E+00
  0.17356529E+00  0.59203751E+00  0.72704551E-01
  0.17983246E+00  0.58981230E+00  0.99532123E+00
  0.18265709E+00  0.49509159E+00  0.18956942E+00
  0.20804451E+00  0.48491058E+00  0.10108402E+00
  0.26393990E+00  0.38638035E+00  0.83518975E-01
  0.27521676E+00  0.38786800E+00  0.47074054E-02
  0.34146581E+00  0.32748896E+00  0.21578746E+00
  0.35109158E+00  0.30437731E+00  0.12913679E+00
  0.44038405E+00  0.23619140E+00  0.90249779E-01
  0.44928573E+00  0.23536355E+00  0.14862302E-02
  0.53924305E+00  0.21272203E+00  0.21514021E+00
  0.55116363E+00  0.18651870E+00  0.13332577E+00
  0.64695949E+00  0.18206750E+00  0.92381921E-01
  0.64249803E+00  0.19311949E+00  0.11997034E-01
  0.66144416E+00  0.26056497E+00  0.22382480E+00
  0.68347067E+00  0.24552560E+00  0.13751445E+00
  0.74017649E+00  0.30083077E+00  0.11007488E+00
  0.77521643E+00  0.28448720E+00  0.97467606E-02
  0.70895110E+00  0.41484141E+00  0.22994421E+00
  0.75796591E+00  0.39157658E+00  0.15146175E+00
  0.68921214E+00  0.50628049E+00  0.36123139E+00
  0.69374914E+00  0.49896915E+00  0.27030440E+00
  0.62928086E+00  0.63106517E+00  0.46957919E+00
  0.63248248E+00  0.60567898E+00  0.39930545E+00
  0.52195783E+00  0.69941519E+00  0.35748920E+00
  0.51976519E+00  0.70820694E+00  0.27354427E+00
  0.44682537E+00  0.74877040E+00  0.48179320E+00
  0.42362593E+00  0.75210556E+00  0.39754381E+00
  0.33532277E+00  0.79087474E+00  0.34465023E+00
  0.29990593E+00  0.82645056E+00  0.25933924E+00
  0.27252411E+00  0.73989107E+00  0.47356178E+00
  0.24740359E+00  0.76239129E+00  0.39097884E+00
  0.16493627E+00  0.75372707E+00  0.35759012E+00
  0.20495238E+00  0.72605620E+00  0.26163266E+00
  0.10622008E+00  0.71377151E+00  0.46030048E+00
  0.13758676E+00  0.66910928E+00  0.36754460E+00
  0.11785593E+00  0.59164375E+00  0.33368268E+00
  0.14397682E+00  0.59930557E+00  0.24400532E+00
  0.18231695E+00  0.48599598E+00  0.46943516E+00
  0.17737224E+00  0.49700329E+00  0.38411020E+00
  0.24621831E+00  0.41614540E+00  0.34014428E+00
  0.25698365E+00  0.40310875E+00  0.25244116E+00
  0.31156835E+00  0.32304941E+00  0.46600126E+00
  0.33112479E+00  0.33321584E+00  0.37693249E+00
  0.43063817E+00  0.29353231E+00  0.33648567E+00
  0.42436459E+00  0.28059772E+00  0.25553467E+00
  0.52334287E+00  0.21109760E+00  0.45523502E+00
  0.52695045E+00  0.23502790E+00  0.37906757E+00
  0.61745817E+00  0.20850834E+00  0.34485178E+00
  0.62600508E+00  0.21499366E+00  0.26795526E+00
  0.69999228E+00  0.22808973E+00  0.47682886E+00
  0.69985723E+00  0.23097593E+00  0.39537247E+00
  0.72508260E+00  0.30002988E+00  0.34254769E+00
  0.71476848E+00  0.31729616E+00  0.26924595E+00
  0.72408358E+00  0.38945424E+00  0.46835873E+00
  0.71519401E+00  0.39302592E+00  0.37958051E+00
  0.70924824E+00  0.47564500E+00  0.58812164E+00
  0.69557029E+00  0.49170678E+00  0.51888812E+00
  0.65273292E+00  0.59945371E+00  0.72242918E+00
  0.65421285E+00  0.58694643E+00  0.62680388E+00
  0.55507601E+00  0.69961823E+00  0.60987072E+00
  0.54998454E+00  0.70273599E+00  0.53371898E+00
  0.44579363E+00  0.75686643E+00  0.74847846E+00
  0.45193230E+00  0.75236696E+00  0.65215531E+00
  0.34649754E+00  0.77432805E+00  0.60835750E+00
  0.34401178E+00  0.76806156E+00  0.52491925E+00
  0.24377485E+00  0.79420034E+00  0.71865747E+00
  0.25313383E+00  0.76601575E+00  0.64117118E+00
  0.15191083E+00  0.75368186E+00  0.57989465E+00
  0.16994128E+00  0.75098027E+00  0.50010243E+00
  0.12888321E+00  0.70450897E+00  0.71597368E+00
  0.10847149E+00  0.69269432E+00  0.62997923E+00
  0.13889178E+00  0.58915233E+00  0.59044381E+00
  0.12690836E+00  0.59812764E+00  0.49969957E+00
  0.17503706E+00  0.47931351E+00  0.71313648E+00
  0.18501435E+00  0.49030525E+00  0.62956606E+00
  0.24143603E+00  0.39109038E+00  0.59930336E+00
  0.23430384E+00  0.39370391E+00  0.51623430E+00
  0.36195838E+00  0.30375235E+00  0.70581241E+00
  0.35601259E+00  0.29579507E+00  0.62663202E+00
  0.43304771E+00  0.25547419E+00  0.57928062E+00
  0.40910405E+00  0.28046359E+00  0.50270944E+00
  0.56794468E+00  0.17137937E+00  0.71414920E+00
  0.54787152E+00  0.18122126E+00  0.63524915E+00
  0.63926853E+00  0.19792223E+00  0.58371851E+00
  0.61262588E+00  0.19874398E+00  0.49580607E+00
  0.67626315E+00  0.25368088E+00  0.71598534E+00
  0.68673920E+00  0.22875085E+00  0.63507346E+00
  0.69051556E+00  0.32612530E+00  0.60112287E+00
  0.71307773E+00  0.32311378E+00  0.51748843E+00
  0.73151407E+00  0.39515260E+00  0.74889329E+00
  0.67275449E+00  0.41900716E+00  0.63569170E+00
  0.72801256E+00  0.49049880E+00  0.84665961E+00
  0.72424582E+00  0.50046665E+00  0.75843029E+00
  0.66062009E+00  0.58744529E+00  0.95956464E+00
  0.67863479E+00  0.60913861E+00  0.88421321E+00
  0.56903150E+00  0.67206851E+00  0.84811305E+00
  0.54774499E+00  0.68064824E+00  0.76815193E+00
  0.45504942E+00  0.72652386E+00  0.98874356E+00
  0.46990061E+00  0.72653902E+00  0.90268145E+00
  0.37970914E+00  0.76689899E+00  0.85252750E+00
  0.33198080E+00  0.79282973E+00  0.77469814E+00
  0.26395649E+00  0.77670686E+00  0.96131002E+00
  0.29125099E+00  0.76136050E+00  0.88161908E+00
  0.23644824E+00  0.72292063E+00  0.83073911E+00
  0.18828488E+00  0.74416393E+00  0.75996143E+00
  0.16756730E+00  0.69383473E+00  0.95611096E+00
  0.18895213E+00  0.66334843E+00  0.87245123E+00
  0.16130813E+00  0.58158007E+00  0.82949779E+00
  0.14417103E+00  0.60000945E+00  0.75438906E+00
  0.18403524E+00  0.49962289E+00  0.95796801E+00
  0.18841978E+00  0.48764688E+00  0.87804112E+00
  0.27394889E+00  0.38677777E+00  0.82575840E+00
  0.27310936E+00  0.39776611E+00  0.73956869E+00
  0.35199854E+00  0.32307399E+00  0.95557042E+00
  0.35202535E+00  0.33083326E+00  0.87226941E+00
  0.45978948E+00  0.25530917E+00  0.83483296E+00
  0.46454302E+00  0.24413071E+00  0.75230177E+00
  0.54036813E+00  0.21460534E+00  0.96284178E+00
  0.54182033E+00  0.19251579E+00  0.86810688E+00
  0.64180250E+00  0.17384782E+00  0.84866627E+00
  0.66126123E+00  0.17955195E+00  0.76330300E+00
  0.71222903E+00  0.21564629E+00  0.97308502E+00
  0.68719355E+00  0.24207170E+00  0.89331516E+00
  0.72986822E+00  0.30297114E+00  0.86498975E+00
  0.72791322E+00  0.29473668E+00  0.76310583E+00
  0.73362002E+00  0.37839484E+00  0.96857718E+00
  0.72821728E+00  0.41283178E+00  0.89239921E+00
  0.00000000E+00  0.00000000E+00  0.00000000E+00
  0.00000000E+00  0.00000000E+00  0.00000000E+00
  0.00000000E+00  0.00000000E+00  0.00000000E+00
  0.00000000E+00  0.00000000E+00  0.00000000E+00
  0.00000000E+00  0.00000000E+00  0.00000000E+00
  0.00000000E+00  0.00000000E+00  0.00000000E+00
  0.00000000E+00  0.00000000E+00  0.00000000E+00
  0.00000000E+00  0.00000000E+00  0.00000000E+00
  0.00000000E+00  0.00000000E+00  0.00000000E+00
  0.00000000E+00  0.00000000E+00  0.00000000E+00
  0.00000000E+00  0.00000000E+00  0.00000000E+00
  0.00000000E+00  0.00000000E+00  0.00000000E+00
  0.00000000E+00  0.00000000E+00  0.00000000E+00
  0.00000000E+00  0.00000000E+00  0.00000000E+00
  0.00000000E+00  0.00000000E+00  0.00000000E+00
  0.00000000E+00  0.00000000E+00  0.00000000E+00
  0.00000000E+00  0.00000000E+00  0.00000000E+00
  0.00000000E+00  0.00000000E+00  0.00000000E+00
  0.00000000E+00  0.00000000E+00  0.00000000E+00
  0.00000000E+00  0.00000000E+00  0.00000000E+00
  0.00000000E+00  0.00000000E+00  0.00000000E+00
  0.00000000E+00  0.00000000E+00  0.00000000E+00
  0.00000000E+00  0.00000000E+00  0.00000000E+00
  0.00000000E+00  0.00000000E+00  0.00000000E+00
  0.00000000E+00  0.00000000E+00  0.00000000E+00
  0.00000000E+00  0.00000000E+00  0.00000000E+00
  0.00000000E+00  0.00000000E+00  0.00000000E+00
  0.00000000E+00  0.00000000E+00  0.00000000E+00
  0.00000000E+00  0.00000000E+00  0.00000000E+00
  0.00000000E+00  0.00000000E+00  0.00000000E+00
  0.00000000E+00  0.00000000E+00  0.00000000E+00
  0.00000000E+00  0.00000000E+00  0.00000000E+00
  0.00000000E+00  0.00000000E+00  0.00000000E+00
  0.00000000E+00  0.00000000E+00  0.00000000E+00
  0.00000000E+00  0.00000000E+00  0.00000000E+00
  0.00000000E+00  0.00000000E+00  0.00000000E+00
  0.00000000E+00  0.00000000E+00  0.00000000E+00
  0.00000000E+00  0.00000000E+00  0.00000000E+00
  0.00000000E+00  0.00000000E+00  0.00000000E+00
  0.00000000E+00  0.00000000E+00  0.00000000E+00
  0.00000000E+00  0.00000000E+00  0.00000000E+00
  0.00000000E+00  0.00000000E+00  0.00000000E+00
  0.00000000E+00  0.00000000E+00  0.00000000E+00
  0.00000000E+00  0.00000000E+00  0.00000000E+00
  0.00000000E+00  0.00000000E+00  0.00000000E+00
  0.00000000E+00  0.00000000E+00  0.00000000E+00
  0.00000000E+00  0.00000000E+00  0.00000000E+00
  0.00000000E+00  0.00000000E+00  0.00000000E+00
  0.00000000E+00  0.00000000E+00  0.00000000E+00
  0.00000000E+00  0.00000000E+00  0.00000000E+00
  0.00000000E+00  0.00000000E+00  0.00000000E+00
  0.00000000E+00  0.00000000E+00  0.00000000E+00
  0.00000000E+00  0.00000000E+00  0.00000000E+00
  0.00000000E+00  0.00000000E+00  0.00000000E+00
  0.00000000E+00  0.00000000E+00  0.00000000E+00
  0.00000000E+00  0.00000000E+00  0.00000000E+00
  0.00000000E+00  0.00000000E+00  0.00000000E+00
  0.00000000E+00  0.00000000E+00  0.00000000E+00
  0.00000000E+00  0.00000000E+00  0.00000000E+00
  0.00000000E+00  0.00000000E+00  0.00000000E+00
  0.00000000E+00  0.00000000E+00  0.00000000E+00
  0.00000000E+00  0.00000000E+00  0.00000000E+00
  0.00000000E+00  0.00000000E+00  0.00000000E+00
  0.00000000E+00  0.00000000E+00  0.00000000E+00
  0.00000000E+00  0.00000000E+00  0.00000000E+00
  0.00000000E+00  0.00000000E+00  0.00000000E+00
  0.00000000E+00  0.00000000E+00  0.00000000E+00
  0.00000000E+00  0.00000000E+00  0.00000000E+00
  0.00000000E+00  0.00000000E+00  0.00000000E+00
  0.00000000E+00  0.00000000E+00  0.00000000E+00
  0.00000000E+00  0.00000000E+00  0.00000000E+00
  0.00000000E+00  0.00000000E+00  0.00000000E+00
  0.00000000E+00  0.00000000E+00  0.00000000E+00
  0.00000000E+00  0.00000000E+00  0.00000000E+00
  0.00000000E+00  0.00000000E+00  0.00000000E+00
  0.00000000E+00  0.00000000E+00  0.00000000E+00
  0.00000000E+00  0.00000000E+00  0.00000000E+00
  0.00000000E+00  0.00000000E+00  0.00000000E+00
  0.00000000E+00  0.00000000E+00  0.00000000E+00
  0.00000000E+00  0.00000000E+00  0.00000000E+00
  0.00000000E+00  0.00000000E+00  0.00000000E+00
  0.00000000E+00  0.00000000E+00  0.00000000E+00
  0.00000000E+00  0.00000000E+00  0.00000000E+00
  0.00000000E+00  0.00000000E+00  0.00000000E+00
  0.00000000E+00  0.00000000E+00  0.00000000E+00
  0.00000000E+00  0.00000000E+00  0.00000000E+00
  0.00000000E+00  0.00000000E+00  0.00000000E+00
  0.00000000E+00  0.00000000E+00  0.00000000E+00
  0.00000000E+00  0.00000000E+00  0.00000000E+00
  0.00000000E+00  0.00000000E+00  0.00000000E+00
  0.00000000E+00  0.00000000E+00  0.00000000E+00
  0.00000000E+00  0.00000000E+00  0.00000000E+00
  0.00000000E+00  0.00000000E+00  0.00000000E+00
  0.00000000E+00  0.00000000E+00  0.00000000E+00
  0.00000000E+00  0.00000000E+00  0.00000000E+00
  0.00000000E+00  0.00000000E+00  0.00000000E+00
  0.00000000E+00  0.00000000E+00  0.00000000E+00
  0.00000000E+00  0.00000000E+00  0.00000000E+00
  0.00000000E+00  0.00000000E+00  0.00000000E+00
  0.00000000E+00  0.00000000E+00  0.00000000E+00
  0.00000000E+00  0.00000000E+00  0.00000000E+00
  0.00000000E+00  0.00000000E+00  0.00000000E+00
  0.00000000E+00  0.00000000E+00  0.00000000E+00
  0.00000000E+00  0.00000000E+00  0.00000000E+00
  0.00000000E+00  0.00000000E+00  0.00000000E+00
  0.00000000E+00  0.00000000E+00  0.00000000E+00
  0.00000000E+00  0.00000000E+00  0.00000000E+00
  0.00000000E+00  0.00000000E+00  0.00000000E+00
  0.00000000E+00  0.00000000E+00  0.00000000E+00
  0.00000000E+00  0.00000000E+00  0.00000000E+00
  0.00000000E+00  0.00000000E+00  0.00000000E+00
  0.00000000E+00  0.00000000E+00  0.00000000E+00
  0.00000000E+00  0.00000000E+00  0.00000000E+00
  0.00000000E+00  0.00000000E+00  0.00000000E+00
  0.00000000E+00  0.00000000E+00  0.00000000E+00
  0.00000000E+00  0.00000000E+00  0.00000000E+00
  0.00000000E+00  0.00000000E+00  0.00000000E+00
  0.00000000E+00  0.00000000E+00  0.00000000E+00
  0.00000000E+00  0.00000000E+00  0.00000000E+00
  0.00000000E+00  0.00000000E+00  0.00000000E+00
  0.00000000E+00  0.00000000E+00  0.00000000E+00
  0.00000000E+00  0.00000000E+00  0.00000000E+00
  0.00000000E+00  0.00000000E+00  0.00000000E+00
  0.00000000E+00  0.00000000E+00  0.00000000E+00
  0.00000000E+00  0.00000000E+00  0.00000000E+00
  0.00000000E+00  0.00000000E+00  0.00000000E+00
  0.00000000E+00  0.00000000E+00  0.00000000E+00
  0.00000000E+00  0.00000000E+00  0.00000000E+00
  0.00000000E+00  0.00000000E+00  0.00000000E+00
  0.00000000E+00  0.00000000E+00  0.00000000E+00
  0.00000000E+00  0.00000000E+00  0.00000000E+00
  0.00000000E+00  0.00000000E+00  0.00000000E+00
  0.00000000E+00  0.00000000E+00  0.00000000E+00
  0.00000000E+00  0.00000000E+00  0.00000000E+00
  0.00000000E+00  0.00000000E+00  0.00000000E+00
  0.00000000E+00  0.00000000E+00  0.00000000E+00
  0.00000000E+00  0.00000000E+00  0.00000000E+00
  0.00000000E+00  0.00000000E+00  0.00000000E+00
  0.00000000E+00  0.00000000E+00  0.00000000E+00
  0.00000000E+00  0.00000000E+00  0.00000000E+00
  0.00000000E+00  0.00000000E+00  0.00000000E+00
  0.00000000E+00  0.00000000E+00  0.00000000E+00
  0.00000000E+00  0.00000000E+00  0.00000000E+00
  0.00000000E+00  0.00000000E+00  0.00000000E+00
  0.00000000E+00  0.00000000E+00  0.00000000E+00
  0.00000000E+00  0.00000000E+00  0.00000000E+00
  0.00000000E+00  0.00000000E+00  0.00000000E+00
  0.00000000E+00  0.00000000E+00  0.00000000E+00
  0.00000000E+00  0.00000000E+00  0.00000000E+00
  0.00000000E+00  0.00000000E+00  0.00000000E+00
  0.00000000E+00  0.00000000E+00  0.00000000E+00
  0.00000000E+00  0.00000000E+00  0.00000000E+00
  0.00000000E+00  0.00000000E+00  0.00000000E+00
  0.00000000E+00  0.00000000E+00  0.00000000E+00
  0.00000000E+00  0.00000000E+00  0.00000000E+00
  0.00000000E+00  0.00000000E+00  0.00000000E+00
  0.00000000E+00  0.00000000E+00  0.00000000E+00
  0.00000000E+00  0.00000000E+00  0.00000000E+00
  0.00000000E+00  0.00000000E+00  0.00000000E+00
  0.00000000E+00  0.00000000E+00  0.00000000E+00
  0.00000000E+00  0.00000000E+00  0.00000000E+00
  0.00000000E+00  0.00000000E+00  0.00000000E+00
  0.00000000E+00  0.00000000E+00  0.00000000E+00
  0.00000000E+00  0.00000000E+00  0.00000000E+00
  0.00000000E+00  0.00000000E+00  0.00000000E+00
  0.00000000E+00  0.00000000E+00  0.00000000E+00
  0.00000000E+00  0.00000000E+00  0.00000000E+00
  0.00000000E+00  0.00000000E+00  0.00000000E+00
  0.00000000E+00  0.00000000E+00  0.00000000E+00
  0.00000000E+00  0.00000000E+00  0.00000000E+00
  0.00000000E+00  0.00000000E+00  0.00000000E+00
  0.00000000E+00  0.00000000E+00  0.00000000E+00
  0.00000000E+00  0.00000000E+00  0.00000000E+00
  0.00000000E+00  0.00000000E+00  0.00000000E+00
  0.00000000E+00  0.00000000E+00  0.00000000E+00
  0.00000000E+00  0.00000000E+00  0.00000000E+00
  0.00000000E+00  0.00000000E+00  0.00000000E+00
  0.00000000E+00  0.00000000E+00  0.00000000E+00
  0.00000000E+00  0.00000000E+00  0.00000000E+00
  0.00000000E+00  0.00000000E+00  0.00000000E+00
  0.00000000E+00  0.00000000E+00  0.00000000E+00
  0.00000000E+00  0.00000000E+00  0.00000000E+00
  0.00000000E+00  0.00000000E+00  0.00000000E+00
  0.00000000E+00  0.00000000E+00  0.00000000E+00
  0.00000000E+00  0.00000000E+00  0.00000000E+00
  0.00000000E+00  0.00000000E+00  0.00000000E+00
  0.00000000E+00  0.00000000E+00  0.00000000E+00
  0.00000000E+00  0.00000000E+00  0.00000000E+00
  0.00000000E+00  0.00000000E+00  0.00000000E+00
  0.00000000E+00  0.00000000E+00  0.00000000E+00
  0.00000000E+00  0.00000000E+00  0.00000000E+00
  0.00000000E+00  0.00000000E+00  0.00000000E+00
  0.00000000E+00  0.00000000E+00  0.00000000E+00
  0.00000000E+00  0.00000000E+00  0.00000000E+00
  0.00000000E+00  0.00000000E+00  0.00000000E+00
  0.00000000E+00  0.00000000E+00  0.00000000E+00
  0.00000000E+00  0.00000000E+00  0.00000000E+00
  0.00000000E+00  0.00000000E+00  0.00000000E+00
  0.00000000E+00  0.00000000E+00  0.00000000E+00
  0.00000000E+00  0.00000000E+00  0.00000000E+00
  0.00000000E+00  0.00000000E+00  0.00000000E+00
  0.00000000E+00  0.00000000E+00  0.00000000E+00
  0.00000000E+00  0.00000000E+00  0.00000000E+00
  0.00000000E+00  0.00000000E+00  0.00000000E+00
  0.00000000E+00  0.00000000E+00  0.00000000E+00
  0.00000000E+00  0.00000000E+00  0.00000000E+00
  0.00000000E+00  0.00000000E+00  0.00000000E+00
  0.00000000E+00  0.00000000E+00  0.00000000E+00
  0.00000000E+00  0.00000000E+00  0.00000000E+00
  0.00000000E+00  0.00000000E+00  0.00000000E+00
  0.00000000E+00  0.00000000E+00  0.00000000E+00
  0.00000000E+00  0.00000000E+00  0.00000000E+00
  0.00000000E+00  0.00000000E+00  0.00000000E+00
  0.00000000E+00  0.00000000E+00  0.00000000E+00
  0.00000000E+00  0.00000000E+00  0.00000000E+00
  0.00000000E+00  0.00000000E+00  0.00000000E+00
  0.00000000E+00  0.00000000E+00  0.00000000E+00
  0.00000000E+00  0.00000000E+00  0.00000000E+00
  0.00000000E+00  0.00000000E+00  0.00000000E+00
  0.00000000E+00  0.00000000E+00  0.00000000E+00
  0.00000000E+00  0.00000000E+00  0.00000000E+00
  0.00000000E+00  0.00000000E+00  0.00000000E+00
  0.00000000E+00  0.00000000E+00  0.00000000E+00
  0.00000000E+00  0.00000000E+00  0.00000000E+00
  0.00000000E+00  0.00000000E+00  0.00000000E+00
  0.00000000E+00  0.00000000E+00  0.00000000E+00
  0.00000000E+00  0.00000000E+00  0.00000000E+00
  0.00000000E+00  0.00000000E+00  0.00000000E+00
  0.00000000E+00  0.00000000E+00  0.00000000E+00
  0.00000000E+00  0.00000000E+00  0.00000000E+00
  0.00000000E+00  0.00000000E+00  0.00000000E+00
  0.00000000E+00  0.00000000E+00  0.00000000E+00
  0.00000000E+00  0.00000000E+00  0.00000000E+00
  0.00000000E+00  0.00000000E+00  0.00000000E+00
  0.00000000E+00  0.00000000E+00  0.00000000E+00
  0.00000000E+00  0.00000000E+00  0.00000000E+00
  0.00000000E+00  0.00000000E+00  0.00000000E+00
  0.00000000E+00  0.00000000E+00  0.00000000E+00
  0.00000000E+00  0.00000000E+00  0.00000000E+00
  0.00000000E+00  0.00000000E+00  0.00000000E+00
  0.00000000E+00  0.00000000E+00  0.00000000E+00
  0.00000000E+00  0.00000000E+00  0.00000000E+00
  0.00000000E+00  0.00000000E+00  0.00000000E+00
  0.00000000E+00  0.00000000E+00  0.00000000E+00
  0.00000000E+00  0.00000000E+00  0.00000000E+00
  0.00000000E+00  0.00000000E+00  0.00000000E+00
  0.00000000E+00  0.00000000E+00  0.00000000E+00
  0.00000000E+00  0.00000000E+00  0.00000000E+00
  0.00000000E+00  0.00000000E+00  0.00000000E+00
  0.00000000E+00  0.00000000E+00  0.00000000E+00
  0.00000000E+00  0.00000000E+00  0.00000000E+00
  0.00000000E+00  0.00000000E+00  0.00000000E+00
  0.00000000E+00  0.00000000E+00  0.00000000E+00
  0.00000000E+00  0.00000000E+00  0.00000000E+00
  0.00000000E+00  0.00000000E+00  0.00000000E+00
  0.00000000E+00  0.00000000E+00  0.00000000E+00
  0.00000000E+00  0.00000000E+00  0.00000000E+00
  0.00000000E+00  0.00000000E+00  0.00000000E+00
  0.00000000E+00  0.00000000E+00  0.00000000E+00
  0.00000000E+00  0.00000000E+00  0.00000000E+00
  0.00000000E+00  0.00000000E+00  0.00000000E+00
  0.00000000E+00  0.00000000E+00  0.00000000E+00
  0.00000000E+00  0.00000000E+00  0.00000000E+00
  0.00000000E+00  0.00000000E+00  0.00000000E+00
  0.00000000E+00  0.00000000E+00  0.00000000E+00
  0.00000000E+00  0.00000000E+00  0.00000000E+00
  0.00000000E+00  0.00000000E+00  0.00000000E+00
  0.00000000E+00  0.00000000E+00  0.00000000E+00
  0.00000000E+00  0.00000000E+00  0.00000000E+00
  0.00000000E+00  0.00000000E+00  0.00000000E+00
  0.00000000E+00  0.00000000E+00  0.00000000E+00
  0.00000000E+00  0.00000000E+00  0.00000000E+00
  0.00000000E+00  0.00000000E+00  0.00000000E+00
  0.00000000E+00  0.00000000E+00  0.00000000E+00
  0.00000000E+00  0.00000000E+00  0.00000000E+00
  0.00000000E+00  0.00000000E+00  0.00000000E+00
  0.00000000E+00  0.00000000E+00  0.00000000E+00
  0.00000000E+00  0.00000000E+00  0.00000000E+00
  0.00000000E+00  0.00000000E+00  0.00000000E+00
  0.00000000E+00  0.00000000E+00  0.00000000E+00
  0.00000000E+00  0.00000000E+00  0.00000000E+00
  0.00000000E+00  0.00000000E+00  0.00000000E+00
  0.00000000E+00  0.00000000E+00  0.00000000E+00
  0.00000000E+00  0.00000000E+00  0.00000000E+00
  0.00000000E+00  0.00000000E+00  0.00000000E+00
  0.00000000E+00  0.00000000E+00  0.00000000E+00
  0.00000000E+00  0.00000000E+00  0.00000000E+00
  0.00000000E+00  0.00000000E+00  0.00000000E+00
