# C nanotube of type zigzag (0,17); radi
    1.000000000000000     
    26.7913039991600677    0.0000000174899217    0.0000000000000000
    13.3956504699582730   23.2022246142629065    0.0000000000000000
     0.0000000000000000    0.0000000000000000   17.0877304360019728
   C 
   272
Direct
  0.7498952062879524  0.4999999999998332  0.0832915748075112
  0.7498952062879524  0.4999999999998332  0.0000417531924907
  0.7191276314804143  0.5530191928476706  0.2082961570563955
  0.7191276314804143  0.5530191928476706  0.1250371709436065
  0.6809053793285585  0.6042389763633392  0.0832965173084031
  0.6809053793285585  0.6042389763633392  0.0000368106915988
  0.6365166543219278  0.6519089441677167  0.2082977536242788
  0.6365166543219278  0.6519089441677167  0.1250355743757232
  0.5874709448616011  0.6943990215013239  0.0832997784016440
  0.5874709448616011  0.6943990215013239  0.0000335495983579
  0.5354547302059024  0.7302718384216101  0.2082976431667572
  0.5354547302059024  0.7302718384216101  0.1250356848332448
  0.4822326167232678  0.7583048702258132  0.0832972530680299
  0.4822326167232678  0.7583048702258132  0.0000360749319720
  0.4296173933168470  0.7775373958422683  0.2082974666715702
  0.4296173933168470  0.7775373958422683  0.1250358613284318
  0.3794040948915590  0.7873136188400069  0.0832961752757242
  0.3794040948915590  0.7873136188400069  0.0000371527242777
  0.3332822852681174  0.7873136188400331  0.2082961752757242
  0.3332822852681174  0.7873136188400331  0.1250371527242777
  0.2928452118405649  0.7775373958423629  0.0832974666715701
  0.2928452118405649  0.7775373958423629  0.0000358613284318
  0.2594625130505843  0.7583048702259716  0.2082972530680298
  0.2594625130505843  0.7583048702259716  0.1250360749319721
  0.2342734913721531  0.7302718384218175  0.0832976431667572
  0.2342734913721531  0.7302718384218175  0.0000356848332448
  0.2181300336367575  0.6943990215015862  0.2082997784016440
  0.2181300336367575  0.6943990215015862  0.1250335495983580
  0.2115743865100683  0.6519089441679855  0.0832977536242788
  0.2115743865100683  0.6519089441679855  0.0000355743757231
  0.2148556743078595  0.6042389763636420  0.2082965173084031
  0.2148556743078595  0.6042389763636420  0.1250368106915988
  0.2278532206716845  0.5530191928480018  0.0832961570563955
  0.2278532206716845  0.5530191928480018  0.0000371709436065
  0.2501047937120475  0.5000000000001668  0.2082915748075113
  0.2501047937120475  0.5000000000001668  0.1250417531924906
  0.2808723985195812  0.4469807771523268  0.0832961570563954
  0.2808723985195812  0.4469807771523268  0.0000371709436065
  0.3190946506714439  0.3957609936366655  0.2082965173084031
  0.3190946506714439  0.3957609936366655  0.1250368106915988
  0.3634833156780700  0.3480910558322833  0.0832977536242788
  0.3634833156780700  0.3480910558322833  0.0000355743757231
  0.4125290251383964  0.3056010384986813  0.2082997784016440
  0.4125290251383964  0.3056010384986813  0.1250335495983580
  0.4645452997940929  0.2697282215783949  0.0832976431667572
  0.4645452997940929  0.2697282215783949  0.0000356848332448
  0.5177673532767297  0.2416951587741857  0.2082972530680298
  0.5177673532767297  0.2416951587741857  0.1250360749319721
  0.5703826066831531  0.2224625751577329  0.0832974666715701
  0.5703826066831531  0.2224625751577329  0.0000358613284318
  0.6205959051084410  0.2126863811599931  0.2082961752757242
  0.6205959051084410  0.2126863811599931  0.1250371527242777
  0.6667177147318829  0.2126863811599669  0.0832961752757242
  0.6667177147318829  0.2126863811599669  0.0000371527242777
  0.7071547881594350  0.2224625751576382  0.2082974666715702
  0.7071547881594350  0.2224625751576382  0.1250358613284318
  0.7405374579494169  0.2416951587740272  0.0832972530680299
  0.7405374579494169  0.2416951587740272  0.0000360749319720
  0.7657265086278469  0.2697282215781874  0.2082976431667572
  0.7657265086278469  0.2697282215781874  0.1250356848332448
  0.7818699073632411  0.3056010384984189  0.0832997784016440
  0.7818699073632411  0.3056010384984189  0.0000335495983579
  0.7884255994899306  0.3480910558320146  0.2082977536242788
  0.7884255994899306  0.3480910558320146  0.1250355743757232
  0.7851443556921359  0.3957609936363627  0.0832965173084031
  0.7851443556921359  0.3957609936363627  0.0000368106915988
  0.7721468233283191  0.4469807771519958  0.2082961570563955
  0.7721468233283191  0.4469807771519958  0.1250371709436064
  0.7498952062879524  0.4999999999998332  0.3332915898075089
  0.7498952062879524  0.4999999999998332  0.2500417531924907
  0.7191276314804143  0.5530191928476706  0.4582961720563931
  0.7191276314804143  0.5530191928476706  0.3750371709436065
  0.6809053793285585  0.6042389763633392  0.3332965323084008
  0.6809053793285585  0.6042389763633392  0.2500368106915988
  0.6365166543219278  0.6519089441677167  0.4582977686242765
  0.6365166543219278  0.6519089441677167  0.3750355743757231
  0.5874709448616011  0.6943990215013239  0.3332997934016416
  0.5874709448616011  0.6943990215013239  0.2500335495983579
  0.5354547302059024  0.7302718384216101  0.4582976581667549
  0.5354547302059024  0.7302718384216101  0.3750356848332447
  0.4822326167232678  0.7583048702258132  0.3332972680680276
  0.4822326167232678  0.7583048702258132  0.2500360749319721
  0.4296173933168470  0.7775373958422683  0.4582974816715679
  0.4296173933168470  0.7775373958422683  0.3750358613284318
  0.3794040948915590  0.7873136188400069  0.3332961902757219
  0.3794040948915590  0.7873136188400069  0.2500371527242777
  0.3332822852681174  0.7873136188400331  0.4582961902757219
  0.3332822852681174  0.7873136188400331  0.3750371527242777
  0.2928452118405649  0.7775373958423629  0.3332974816715679
  0.2928452118405649  0.7775373958423629  0.2500358613284318
  0.2594625130505843  0.7583048702259716  0.4582972680680276
  0.2594625130505843  0.7583048702259716  0.3750360749319721
  0.2342734913721531  0.7302718384218175  0.3332976581667549
  0.2342734913721531  0.7302718384218175  0.2500356848332447
  0.2181300336367575  0.6943990215015862  0.4582997934016416
  0.2181300336367575  0.6943990215015862  0.3750335495983580
  0.2115743865100683  0.6519089441679855  0.3332977686242765
  0.2115743865100683  0.6519089441679855  0.2500355743757231
  0.2148556743078595  0.6042389763636420  0.4582965323084008
  0.2148556743078595  0.6042389763636420  0.3750368106915988
  0.2278532206716845  0.5530191928480018  0.3332961720563931
  0.2278532206716845  0.5530191928480018  0.2500371709436065
  0.2501047937120475  0.5000000000001668  0.4582915898075089
  0.2501047937120475  0.5000000000001668  0.3750417531924907
  0.2808723985195812  0.4469807771523268  0.3332961720563931
  0.2808723985195812  0.4469807771523268  0.2500371709436065
  0.3190946506714439  0.3957609936366655  0.4582965323084008
  0.3190946506714439  0.3957609936366655  0.3750368106915988
  0.3634833156780700  0.3480910558322833  0.3332977686242765
  0.3634833156780700  0.3480910558322833  0.2500355743757231
  0.4125290251383964  0.3056010384986813  0.4582997934016416
  0.4125290251383964  0.3056010384986813  0.3750335495983580
  0.4645452997940929  0.2697282215783949  0.3332976581667549
  0.4645452997940929  0.2697282215783949  0.2500356848332447
  0.5177673532767297  0.2416951587741857  0.4582972680680276
  0.5177673532767297  0.2416951587741857  0.3750360749319721
  0.5703826066831531  0.2224625751577329  0.3332974816715679
  0.5703826066831531  0.2224625751577329  0.2500358613284318
  0.6205959051084410  0.2126863811599931  0.4582961902757219
  0.6205959051084410  0.2126863811599931  0.3750371527242777
  0.6667177147318829  0.2126863811599669  0.3332961902757219
  0.6667177147318829  0.2126863811599669  0.2500371527242777
  0.7071547881594350  0.2224625751576382  0.4582974816715679
  0.7071547881594350  0.2224625751576382  0.3750358613284318
  0.7405374579494169  0.2416951587740272  0.3332972680680276
  0.7405374579494169  0.2416951587740272  0.2500360749319721
  0.7657265086278469  0.2697282215781874  0.4582976581667549
  0.7657265086278469  0.2697282215781874  0.3750356848332447
  0.7818699073632411  0.3056010384984189  0.3332997934016416
  0.7818699073632411  0.3056010384984189  0.2500335495983579
  0.7884255994899306  0.3480910558320146  0.4582977686242765
  0.7884255994899306  0.3480910558320146  0.3750355743757231
  0.7851443556921359  0.3957609936363627  0.3332965323084008
  0.7851443556921359  0.3957609936363627  0.2500368106915988
  0.7721468233283191  0.4469807771519958  0.4582961720563931
  0.7721468233283191  0.4469807771519958  0.3750371709436065
  0.7498952062879524  0.4999999999998332  0.5832916198075114
  0.7498952062879524  0.4999999999998332  0.5000417531924907
  0.7191276314804143  0.5530191928476706  0.7082961420563907
  0.7191276314804143  0.5530191928476706  0.6250371709436064
  0.6809053793285585  0.6042389763633392  0.5832965623084033
  0.6809053793285585  0.6042389763633392  0.5000368106915988
  0.6365166543219278  0.6519089441677167  0.7082977386242739
  0.6365166543219278  0.6519089441677167  0.6250355743757232
  0.5874709448616011  0.6943990215013239  0.5832998234016442
  0.5874709448616011  0.6943990215013239  0.5000335495983580
  0.5354547302059024  0.7302718384216101  0.7082976281667523
  0.5354547302059024  0.7302718384216101  0.6250356848332448
  0.4822326167232678  0.7583048702258132  0.5832972980680301
  0.4822326167232678  0.7583048702258132  0.5000360749319720
  0.4296173933168470  0.7775373958422683  0.7082974516715653
  0.4296173933168470  0.7775373958422683  0.6250358613284318
  0.3794040948915590  0.7873136188400069  0.5832962202757244
  0.3794040948915590  0.7873136188400069  0.5000371527242777
  0.3332822852681174  0.7873136188400331  0.7082961602757194
  0.3332822852681174  0.7873136188400331  0.6250371527242777
  0.2928452118405649  0.7775373958423629  0.5832975116715703
  0.2928452118405649  0.7775373958423629  0.5000358613284318
  0.2594625130505843  0.7583048702259716  0.7082972380680251
  0.2594625130505843  0.7583048702259716  0.6250360749319720
  0.2342734913721531  0.7302718384218175  0.5832976881667573
  0.2342734913721531  0.7302718384218175  0.5000356848332447
  0.2181300336367575  0.6943990215015862  0.7082997634016392
  0.2181300336367575  0.6943990215015862  0.6250335495983579
  0.2115743865100683  0.6519089441679855  0.5832977986242789
  0.2115743865100683  0.6519089441679855  0.5000355743757232
  0.2148556743078595  0.6042389763636420  0.7082965023083984
  0.2148556743078595  0.6042389763636420  0.6250368106915988
  0.2278532206716845  0.5530191928480018  0.5832962020563957
  0.2278532206716845  0.5530191928480018  0.5000371709436066
  0.2501047937120475  0.5000000000001668  0.7082915598075065
  0.2501047937120475  0.5000000000001668  0.6250417531924907
  0.2808723985195812  0.4469807771523268  0.5832962020563957
  0.2808723985195812  0.4469807771523268  0.5000371709436066
  0.3190946506714439  0.3957609936366655  0.7082965023083984
  0.3190946506714439  0.3957609936366655  0.6250368106915988
  0.3634833156780700  0.3480910558322833  0.5832977986242789
  0.3634833156780700  0.3480910558322833  0.5000355743757232
  0.4125290251383964  0.3056010384986813  0.7082997634016392
  0.4125290251383964  0.3056010384986813  0.6250335495983579
  0.4645452997940929  0.2697282215783949  0.5832976881667573
  0.4645452997940929  0.2697282215783949  0.5000356848332447
  0.5177673532767297  0.2416951587741857  0.7082972380680251
  0.5177673532767297  0.2416951587741857  0.6250360749319720
  0.5703826066831531  0.2224625751577329  0.5832975116715703
  0.5703826066831531  0.2224625751577329  0.5000358613284318
  0.6205959051084410  0.2126863811599931  0.7082961602757194
  0.6205959051084410  0.2126863811599931  0.6250371527242777
  0.6667177147318829  0.2126863811599669  0.5832962202757244
  0.6667177147318829  0.2126863811599669  0.5000371527242777
  0.7071547881594350  0.2224625751576382  0.7082974516715653
  0.7071547881594350  0.2224625751576382  0.6250358613284318
  0.7405374579494169  0.2416951587740272  0.5832972980680301
  0.7405374579494169  0.2416951587740272  0.5000360749319720
  0.7657265086278469  0.2697282215781874  0.7082976281667523
  0.7657265086278469  0.2697282215781874  0.6250356848332448
  0.7818699073632411  0.3056010384984189  0.5832998234016442
  0.7818699073632411  0.3056010384984189  0.5000335495983580
  0.7884255994899306  0.3480910558320146  0.7082977386242739
  0.7884255994899306  0.3480910558320146  0.6250355743757232
  0.7851443556921359  0.3957609936363627  0.5832965623084033
  0.7851443556921359  0.3957609936363627  0.5000368106915988
  0.7721468233283191  0.4469807771519958  0.7082961420563907
  0.7721468233283191  0.4469807771519958  0.6250371709436064
  0.7498952062879524  0.4999999999998332  0.8332915598075065
  0.7498952062879524  0.4999999999998332  0.7500417531924907
  0.7191276314804143  0.5530191928476706  0.9582961420563907
  0.7191276314804143  0.5530191928476706  0.8750371709436064
  0.6809053793285585  0.6042389763633392  0.8332965023083984
  0.6809053793285585  0.6042389763633392  0.7500368106915988
  0.6365166543219278  0.6519089441677167  0.9582977386242739
  0.6365166543219278  0.6519089441677167  0.8750355743757232
  0.5874709448616011  0.6943990215013239  0.8332997634016392
  0.5874709448616011  0.6943990215013239  0.7500335495983579
  0.5354547302059024  0.7302718384216101  0.9582976281667523
  0.5354547302059024  0.7302718384216101  0.8750356848332448
  0.4822326167232678  0.7583048702258132  0.8332972380680251
  0.4822326167232678  0.7583048702258132  0.7500360749319720
  0.4296173933168470  0.7775373958422683  0.9582974516715653
  0.4296173933168470  0.7775373958422683  0.8750358613284318
  0.3794040948915590  0.7873136188400069  0.8332961602757194
  0.3794040948915590  0.7873136188400069  0.7500371527242777
  0.3332822852681174  0.7873136188400331  0.9582961602757194
  0.3332822852681174  0.7873136188400331  0.8750371527242777
  0.2928452118405649  0.7775373958423629  0.8332974516715653
  0.2928452118405649  0.7775373958423629  0.7500358613284318
  0.2594625130505843  0.7583048702259716  0.9582972380680251
  0.2594625130505843  0.7583048702259716  0.8750360749319720
  0.2342734913721531  0.7302718384218175  0.8332976281667523
  0.2342734913721531  0.7302718384218175  0.7500356848332448
  0.2181300336367575  0.6943990215015862  0.9582997634016392
  0.2181300336367575  0.6943990215015862  0.8750335495983579
  0.2115743865100683  0.6519089441679855  0.8332977386242739
  0.2115743865100683  0.6519089441679855  0.7500355743757232
  0.2148556743078595  0.6042389763636420  0.9582965023083984
  0.2148556743078595  0.6042389763636420  0.8750368106915988
  0.2278532206716845  0.5530191928480018  0.8332961420563907
  0.2278532206716845  0.5530191928480018  0.7500371709436064
  0.2501047937120475  0.5000000000001668  0.9582915598075065
  0.2501047937120475  0.5000000000001668  0.8750417531924907
  0.2808723985195812  0.4469807771523268  0.8332961420563907
  0.2808723985195812  0.4469807771523268  0.7500371709436064
  0.3190946506714439  0.3957609936366655  0.9582965023083984
  0.3190946506714439  0.3957609936366655  0.8750368106915988
  0.3634833156780700  0.3480910558322833  0.8332977386242739
  0.3634833156780700  0.3480910558322833  0.7500355743757232
  0.4125290251383964  0.3056010384986813  0.9582997634016392
  0.4125290251383964  0.3056010384986813  0.8750335495983579
  0.4645452997940929  0.2697282215783949  0.8332976281667523
  0.4645452997940929  0.2697282215783949  0.7500356848332448
  0.5177673532767297  0.2416951587741857  0.9582972380680251
  0.5177673532767297  0.2416951587741857  0.8750360749319720
  0.5703826066831531  0.2224625751577329  0.8332974516715653
  0.5703826066831531  0.2224625751577329  0.7500358613284318
  0.6205959051084410  0.2126863811599931  0.9582961602757194
  0.6205959051084410  0.2126863811599931  0.8750371527242777
  0.6667177147318829  0.2126863811599669  0.8332961602757194
  0.6667177147318829  0.2126863811599669  0.7500371527242777
  0.7071547881594350  0.2224625751576382  0.9582974516715653
  0.7071547881594350  0.2224625751576382  0.8750358613284318
  0.7405374579494169  0.2416951587740272  0.8332972380680251
  0.7405374579494169  0.2416951587740272  0.7500360749319720
  0.7657265086278469  0.2697282215781874  0.9582976281667523
  0.7657265086278469  0.2697282215781874  0.8750356848332448
  0.7818699073632411  0.3056010384984189  0.8332997634016392
  0.7818699073632411  0.3056010384984189  0.7500335495983579
  0.7884255994899306  0.3480910558320146  0.9582977386242739
  0.7884255994899306  0.3480910558320146  0.8750355743757232
  0.7851443556921359  0.3957609936363627  0.8332965023083984
  0.7851443556921359  0.3957609936363627  0.7500368106915988
  0.7721468233283191  0.4469807771519958  0.9582961420563907
  0.7721468233283191  0.4469807771519958  0.8750371709436064
 
  0.00000000E+00  0.00000000E+00  0.00000000E+00
  0.00000000E+00  0.00000000E+00  0.00000000E+00
  0.00000000E+00  0.00000000E+00  0.00000000E+00
  0.00000000E+00  0.00000000E+00  0.00000000E+00
  0.00000000E+00  0.00000000E+00  0.00000000E+00
  0.00000000E+00  0.00000000E+00  0.00000000E+00
  0.00000000E+00  0.00000000E+00  0.00000000E+00
  0.00000000E+00  0.00000000E+00  0.00000000E+00
  0.00000000E+00  0.00000000E+00  0.00000000E+00
  0.00000000E+00  0.00000000E+00  0.00000000E+00
  0.00000000E+00  0.00000000E+00  0.00000000E+00
  0.00000000E+00  0.00000000E+00  0.00000000E+00
  0.00000000E+00  0.00000000E+00  0.00000000E+00
  0.00000000E+00  0.00000000E+00  0.00000000E+00
  0.00000000E+00  0.00000000E+00  0.00000000E+00
  0.00000000E+00  0.00000000E+00  0.00000000E+00
  0.00000000E+00  0.00000000E+00  0.00000000E+00
  0.00000000E+00  0.00000000E+00  0.00000000E+00
  0.00000000E+00  0.00000000E+00  0.00000000E+00
  0.00000000E+00  0.00000000E+00  0.00000000E+00
  0.00000000E+00  0.00000000E+00  0.00000000E+00
  0.00000000E+00  0.00000000E+00  0.00000000E+00
  0.00000000E+00  0.00000000E+00  0.00000000E+00
  0.00000000E+00  0.00000000E+00  0.00000000E+00
  0.00000000E+00  0.00000000E+00  0.00000000E+00
  0.00000000E+00  0.00000000E+00  0.00000000E+00
  0.00000000E+00  0.00000000E+00  0.00000000E+00
  0.00000000E+00  0.00000000E+00  0.00000000E+00
  0.00000000E+00  0.00000000E+00  0.00000000E+00
  0.00000000E+00  0.00000000E+00  0.00000000E+00
  0.00000000E+00  0.00000000E+00  0.00000000E+00
  0.00000000E+00  0.00000000E+00  0.00000000E+00
  0.00000000E+00  0.00000000E+00  0.00000000E+00
  0.00000000E+00  0.00000000E+00  0.00000000E+00
  0.00000000E+00  0.00000000E+00  0.00000000E+00
  0.00000000E+00  0.00000000E+00  0.00000000E+00
  0.00000000E+00  0.00000000E+00  0.00000000E+00
  0.00000000E+00  0.00000000E+00  0.00000000E+00
  0.00000000E+00  0.00000000E+00  0.00000000E+00
  0.00000000E+00  0.00000000E+00  0.00000000E+00
  0.00000000E+00  0.00000000E+00  0.00000000E+00
  0.00000000E+00  0.00000000E+00  0.00000000E+00
  0.00000000E+00  0.00000000E+00  0.00000000E+00
  0.00000000E+00  0.00000000E+00  0.00000000E+00
  0.00000000E+00  0.00000000E+00  0.00000000E+00
  0.00000000E+00  0.00000000E+00  0.00000000E+00
  0.00000000E+00  0.00000000E+00  0.00000000E+00
  0.00000000E+00  0.00000000E+00  0.00000000E+00
  0.00000000E+00  0.00000000E+00  0.00000000E+00
  0.00000000E+00  0.00000000E+00  0.00000000E+00
  0.00000000E+00  0.00000000E+00  0.00000000E+00
  0.00000000E+00  0.00000000E+00  0.00000000E+00
  0.00000000E+00  0.00000000E+00  0.00000000E+00
  0.00000000E+00  0.00000000E+00  0.00000000E+00
  0.00000000E+00  0.00000000E+00  0.00000000E+00
  0.00000000E+00  0.00000000E+00  0.00000000E+00
  0.00000000E+00  0.00000000E+00  0.00000000E+00
  0.00000000E+00  0.00000000E+00  0.00000000E+00
  0.00000000E+00  0.00000000E+00  0.00000000E+00
  0.00000000E+00  0.00000000E+00  0.00000000E+00
  0.00000000E+00  0.00000000E+00  0.00000000E+00
  0.00000000E+00  0.00000000E+00  0.00000000E+00
  0.00000000E+00  0.00000000E+00  0.00000000E+00
  0.00000000E+00  0.00000000E+00  0.00000000E+00
  0.00000000E+00  0.00000000E+00  0.00000000E+00
  0.00000000E+00  0.00000000E+00  0.00000000E+00
  0.00000000E+00  0.00000000E+00  0.00000000E+00
  0.00000000E+00  0.00000000E+00  0.00000000E+00
  0.00000000E+00  0.00000000E+00  0.00000000E+00
  0.00000000E+00  0.00000000E+00  0.00000000E+00
  0.00000000E+00  0.00000000E+00  0.00000000E+00
  0.00000000E+00  0.00000000E+00  0.00000000E+00
  0.00000000E+00  0.00000000E+00  0.00000000E+00
  0.00000000E+00  0.00000000E+00  0.00000000E+00
  0.00000000E+00  0.00000000E+00  0.00000000E+00
  0.00000000E+00  0.00000000E+00  0.00000000E+00
  0.00000000E+00  0.00000000E+00  0.00000000E+00
  0.00000000E+00  0.00000000E+00  0.00000000E+00
  0.00000000E+00  0.00000000E+00  0.00000000E+00
  0.00000000E+00  0.00000000E+00  0.00000000E+00
  0.00000000E+00  0.00000000E+00  0.00000000E+00
  0.00000000E+00  0.00000000E+00  0.00000000E+00
  0.00000000E+00  0.00000000E+00  0.00000000E+00
  0.00000000E+00  0.00000000E+00  0.00000000E+00
  0.00000000E+00  0.00000000E+00  0.00000000E+00
  0.00000000E+00  0.00000000E+00  0.00000000E+00
  0.00000000E+00  0.00000000E+00  0.00000000E+00
  0.00000000E+00  0.00000000E+00  0.00000000E+00
  0.00000000E+00  0.00000000E+00  0.00000000E+00
  0.00000000E+00  0.00000000E+00  0.00000000E+00
  0.00000000E+00  0.00000000E+00  0.00000000E+00
  0.00000000E+00  0.00000000E+00  0.00000000E+00
  0.00000000E+00  0.00000000E+00  0.00000000E+00
  0.00000000E+00  0.00000000E+00  0.00000000E+00
  0.00000000E+00  0.00000000E+00  0.00000000E+00
  0.00000000E+00  0.00000000E+00  0.00000000E+00
  0.00000000E+00  0.00000000E+00  0.00000000E+00
  0.00000000E+00  0.00000000E+00  0.00000000E+00
  0.00000000E+00  0.00000000E+00  0.00000000E+00
  0.00000000E+00  0.00000000E+00  0.00000000E+00
  0.00000000E+00  0.00000000E+00  0.00000000E+00
  0.00000000E+00  0.00000000E+00  0.00000000E+00
  0.00000000E+00  0.00000000E+00  0.00000000E+00
  0.00000000E+00  0.00000000E+00  0.00000000E+00
  0.00000000E+00  0.00000000E+00  0.00000000E+00
  0.00000000E+00  0.00000000E+00  0.00000000E+00
  0.00000000E+00  0.00000000E+00  0.00000000E+00
  0.00000000E+00  0.00000000E+00  0.00000000E+00
  0.00000000E+00  0.00000000E+00  0.00000000E+00
  0.00000000E+00  0.00000000E+00  0.00000000E+00
  0.00000000E+00  0.00000000E+00  0.00000000E+00
  0.00000000E+00  0.00000000E+00  0.00000000E+00
  0.00000000E+00  0.00000000E+00  0.00000000E+00
  0.00000000E+00  0.00000000E+00  0.00000000E+00
  0.00000000E+00  0.00000000E+00  0.00000000E+00
  0.00000000E+00  0.00000000E+00  0.00000000E+00
  0.00000000E+00  0.00000000E+00  0.00000000E+00
  0.00000000E+00  0.00000000E+00  0.00000000E+00
  0.00000000E+00  0.00000000E+00  0.00000000E+00
  0.00000000E+00  0.00000000E+00  0.00000000E+00
  0.00000000E+00  0.00000000E+00  0.00000000E+00
  0.00000000E+00  0.00000000E+00  0.00000000E+00
  0.00000000E+00  0.00000000E+00  0.00000000E+00
  0.00000000E+00  0.00000000E+00  0.00000000E+00
  0.00000000E+00  0.00000000E+00  0.00000000E+00
  0.00000000E+00  0.00000000E+00  0.00000000E+00
  0.00000000E+00  0.00000000E+00  0.00000000E+00
  0.00000000E+00  0.00000000E+00  0.00000000E+00
  0.00000000E+00  0.00000000E+00  0.00000000E+00
  0.00000000E+00  0.00000000E+00  0.00000000E+00
  0.00000000E+00  0.00000000E+00  0.00000000E+00
  0.00000000E+00  0.00000000E+00  0.00000000E+00
  0.00000000E+00  0.00000000E+00  0.00000000E+00
  0.00000000E+00  0.00000000E+00  0.00000000E+00
  0.00000000E+00  0.00000000E+00  0.00000000E+00
  0.00000000E+00  0.00000000E+00  0.00000000E+00
  0.00000000E+00  0.00000000E+00  0.00000000E+00
  0.00000000E+00  0.00000000E+00  0.00000000E+00
  0.00000000E+00  0.00000000E+00  0.00000000E+00
  0.00000000E+00  0.00000000E+00  0.00000000E+00
  0.00000000E+00  0.00000000E+00  0.00000000E+00
  0.00000000E+00  0.00000000E+00  0.00000000E+00
  0.00000000E+00  0.00000000E+00  0.00000000E+00
  0.00000000E+00  0.00000000E+00  0.00000000E+00
  0.00000000E+00  0.00000000E+00  0.00000000E+00
  0.00000000E+00  0.00000000E+00  0.00000000E+00
  0.00000000E+00  0.00000000E+00  0.00000000E+00
  0.00000000E+00  0.00000000E+00  0.00000000E+00
  0.00000000E+00  0.00000000E+00  0.00000000E+00
  0.00000000E+00  0.00000000E+00  0.00000000E+00
  0.00000000E+00  0.00000000E+00  0.00000000E+00
  0.00000000E+00  0.00000000E+00  0.00000000E+00
  0.00000000E+00  0.00000000E+00  0.00000000E+00
  0.00000000E+00  0.00000000E+00  0.00000000E+00
  0.00000000E+00  0.00000000E+00  0.00000000E+00
  0.00000000E+00  0.00000000E+00  0.00000000E+00
  0.00000000E+00  0.00000000E+00  0.00000000E+00
  0.00000000E+00  0.00000000E+00  0.00000000E+00
  0.00000000E+00  0.00000000E+00  0.00000000E+00
  0.00000000E+00  0.00000000E+00  0.00000000E+00
  0.00000000E+00  0.00000000E+00  0.00000000E+00
  0.00000000E+00  0.00000000E+00  0.00000000E+00
  0.00000000E+00  0.00000000E+00  0.00000000E+00
  0.00000000E+00  0.00000000E+00  0.00000000E+00
  0.00000000E+00  0.00000000E+00  0.00000000E+00
  0.00000000E+00  0.00000000E+00  0.00000000E+00
  0.00000000E+00  0.00000000E+00  0.00000000E+00
  0.00000000E+00  0.00000000E+00  0.00000000E+00
  0.00000000E+00  0.00000000E+00  0.00000000E+00
  0.00000000E+00  0.00000000E+00  0.00000000E+00
  0.00000000E+00  0.00000000E+00  0.00000000E+00
  0.00000000E+00  0.00000000E+00  0.00000000E+00
  0.00000000E+00  0.00000000E+00  0.00000000E+00
  0.00000000E+00  0.00000000E+00  0.00000000E+00
  0.00000000E+00  0.00000000E+00  0.00000000E+00
  0.00000000E+00  0.00000000E+00  0.00000000E+00
  0.00000000E+00  0.00000000E+00  0.00000000E+00
  0.00000000E+00  0.00000000E+00  0.00000000E+00
  0.00000000E+00  0.00000000E+00  0.00000000E+00
  0.00000000E+00  0.00000000E+00  0.00000000E+00
  0.00000000E+00  0.00000000E+00  0.00000000E+00
  0.00000000E+00  0.00000000E+00  0.00000000E+00
  0.00000000E+00  0.00000000E+00  0.00000000E+00
  0.00000000E+00  0.00000000E+00  0.00000000E+00
  0.00000000E+00  0.00000000E+00  0.00000000E+00
  0.00000000E+00  0.00000000E+00  0.00000000E+00
  0.00000000E+00  0.00000000E+00  0.00000000E+00
  0.00000000E+00  0.00000000E+00  0.00000000E+00
  0.00000000E+00  0.00000000E+00  0.00000000E+00
  0.00000000E+00  0.00000000E+00  0.00000000E+00
  0.00000000E+00  0.00000000E+00  0.00000000E+00
  0.00000000E+00  0.00000000E+00  0.00000000E+00
  0.00000000E+00  0.00000000E+00  0.00000000E+00
  0.00000000E+00  0.00000000E+00  0.00000000E+00
  0.00000000E+00  0.00000000E+00  0.00000000E+00
  0.00000000E+00  0.00000000E+00  0.00000000E+00
  0.00000000E+00  0.00000000E+00  0.00000000E+00
  0.00000000E+00  0.00000000E+00  0.00000000E+00
  0.00000000E+00  0.00000000E+00  0.00000000E+00
  0.00000000E+00  0.00000000E+00  0.00000000E+00
  0.00000000E+00  0.00000000E+00  0.00000000E+00
  0.00000000E+00  0.00000000E+00  0.00000000E+00
  0.00000000E+00  0.00000000E+00  0.00000000E+00
  0.00000000E+00  0.00000000E+00  0.00000000E+00
  0.00000000E+00  0.00000000E+00  0.00000000E+00
  0.00000000E+00  0.00000000E+00  0.00000000E+00
  0.00000000E+00  0.00000000E+00  0.00000000E+00
  0.00000000E+00  0.00000000E+00  0.00000000E+00
  0.00000000E+00  0.00000000E+00  0.00000000E+00
  0.00000000E+00  0.00000000E+00  0.00000000E+00
  0.00000000E+00  0.00000000E+00  0.00000000E+00
  0.00000000E+00  0.00000000E+00  0.00000000E+00
  0.00000000E+00  0.00000000E+00  0.00000000E+00
  0.00000000E+00  0.00000000E+00  0.00000000E+00
  0.00000000E+00  0.00000000E+00  0.00000000E+00
  0.00000000E+00  0.00000000E+00  0.00000000E+00
  0.00000000E+00  0.00000000E+00  0.00000000E+00
  0.00000000E+00  0.00000000E+00  0.00000000E+00
  0.00000000E+00  0.00000000E+00  0.00000000E+00
  0.00000000E+00  0.00000000E+00  0.00000000E+00
  0.00000000E+00  0.00000000E+00  0.00000000E+00
  0.00000000E+00  0.00000000E+00  0.00000000E+00
  0.00000000E+00  0.00000000E+00  0.00000000E+00
  0.00000000E+00  0.00000000E+00  0.00000000E+00
  0.00000000E+00  0.00000000E+00  0.00000000E+00
  0.00000000E+00  0.00000000E+00  0.00000000E+00
  0.00000000E+00  0.00000000E+00  0.00000000E+00
  0.00000000E+00  0.00000000E+00  0.00000000E+00
  0.00000000E+00  0.00000000E+00  0.00000000E+00
  0.00000000E+00  0.00000000E+00  0.00000000E+00
  0.00000000E+00  0.00000000E+00  0.00000000E+00
  0.00000000E+00  0.00000000E+00  0.00000000E+00
  0.00000000E+00  0.00000000E+00  0.00000000E+00
  0.00000000E+00  0.00000000E+00  0.00000000E+00
  0.00000000E+00  0.00000000E+00  0.00000000E+00
  0.00000000E+00  0.00000000E+00  0.00000000E+00
  0.00000000E+00  0.00000000E+00  0.00000000E+00
  0.00000000E+00  0.00000000E+00  0.00000000E+00
  0.00000000E+00  0.00000000E+00  0.00000000E+00
  0.00000000E+00  0.00000000E+00  0.00000000E+00
  0.00000000E+00  0.00000000E+00  0.00000000E+00
  0.00000000E+00  0.00000000E+00  0.00000000E+00
  0.00000000E+00  0.00000000E+00  0.00000000E+00
  0.00000000E+00  0.00000000E+00  0.00000000E+00
  0.00000000E+00  0.00000000E+00  0.00000000E+00
  0.00000000E+00  0.00000000E+00  0.00000000E+00
  0.00000000E+00  0.00000000E+00  0.00000000E+00
  0.00000000E+00  0.00000000E+00  0.00000000E+00
  0.00000000E+00  0.00000000E+00  0.00000000E+00
  0.00000000E+00  0.00000000E+00  0.00000000E+00
  0.00000000E+00  0.00000000E+00  0.00000000E+00
  0.00000000E+00  0.00000000E+00  0.00000000E+00
  0.00000000E+00  0.00000000E+00  0.00000000E+00
  0.00000000E+00  0.00000000E+00  0.00000000E+00
  0.00000000E+00  0.00000000E+00  0.00000000E+00
  0.00000000E+00  0.00000000E+00  0.00000000E+00
  0.00000000E+00  0.00000000E+00  0.00000000E+00
  0.00000000E+00  0.00000000E+00  0.00000000E+00
  0.00000000E+00  0.00000000E+00  0.00000000E+00
  0.00000000E+00  0.00000000E+00  0.00000000E+00
  0.00000000E+00  0.00000000E+00  0.00000000E+00
  0.00000000E+00  0.00000000E+00  0.00000000E+00
  0.00000000E+00  0.00000000E+00  0.00000000E+00
  0.00000000E+00  0.00000000E+00  0.00000000E+00
  0.00000000E+00  0.00000000E+00  0.00000000E+00
  0.00000000E+00  0.00000000E+00  0.00000000E+00
  0.00000000E+00  0.00000000E+00  0.00000000E+00
  0.00000000E+00  0.00000000E+00  0.00000000E+00
  0.00000000E+00  0.00000000E+00  0.00000000E+00
  0.00000000E+00  0.00000000E+00  0.00000000E+00
  0.00000000E+00  0.00000000E+00  0.00000000E+00
  0.00000000E+00  0.00000000E+00  0.00000000E+00
