# C nanotube of type armchair (15,15); radius: 10.337 A..
1.0
       41.3496665955         0.0000000000         0.0000000000
       20.6748332977        35.8098617097         0.0000000000
        0.0000000000         0.0000000000        10.0000000000
    C
  240
Direct
     0.750000000         0.500000000         0.000000000
     0.727479160         0.540175855         0.000000000
     0.714527488         0.560018957         0.125000000
     0.685556829         0.598732710         0.125000000
     0.669679046         0.617414773         0.000000000
     0.635524750         0.652974486         0.000000000
     0.617414773         0.669678986         0.125000000
     0.579569578         0.700530648         0.125000000
     0.560018957         0.714527428         0.000000000
     0.520137012         0.739322543         0.000000000
     0.499999970         0.750000000         0.125000000
     0.459824234         0.767654896         0.125000000
     0.439981073         0.774546385         0.000000000
     0.401267290         0.784289479         0.000000000
     0.382585227         0.787093759         0.125000000
     0.347025484         0.788499236         0.125000000
     0.330321014         0.787093759         0.000000000
     0.299469382         0.780100226         0.000000000
     0.285472602         0.774546385         0.125000000
     0.260677457         0.759459496         0.125000000
     0.250000000         0.750000000         0.000000000
     0.232345089         0.727479100         0.000000000
     0.225453645         0.714527428         0.125000000
     0.215710506         0.685556769         0.125000000
     0.212906286         0.669678986         0.000000000
     0.211500719         0.635524750         0.000000000
     0.212906256         0.617414773         0.125000000
     0.219899744         0.579569638         0.125000000
     0.225453615         0.560018957         0.000000000
     0.240540519         0.520137012         0.000000000
     0.249999985         0.500000000         0.125000000
     0.272520900         0.459824175         0.125000000
     0.285472542         0.439981043         0.000000000
     0.314443201         0.401267290         0.000000000
     0.330321014         0.382585257         0.125000000
     0.364475250         0.347025484         0.125000000
     0.382585257         0.330321014         0.000000000
     0.420430362         0.299469411         0.000000000
     0.439981073         0.285472572         0.125000000
     0.479863018         0.260677487         0.125000000
     0.500000000         0.250000000         0.000000000
     0.540175796         0.232345089         0.000000000
     0.560018957         0.225453630         0.125000000
     0.598732710         0.215710491         0.125000000
     0.617414773         0.212906256         0.000000000
     0.652974486         0.211500719         0.000000000
     0.669678986         0.212906256         0.125000000
     0.700530648         0.219899759         0.125000000
     0.714527428         0.225453630         0.000000000
     0.739322543         0.240540519         0.000000000
     0.749999940         0.250000000         0.125000000
     0.767654896         0.272520900         0.125000000
     0.774546385         0.285472572         0.000000000
     0.784289539         0.314443201         0.000000000
     0.787093759         0.330321014         0.125000000
     0.788499296         0.364475220         0.125000000
     0.787093759         0.382585257         0.000000000
     0.780100286         0.420430332         0.000000000
     0.774546444         0.439981043         0.125000000
     0.759459496         0.479863077         0.125000000
     0.750000000         0.500000000         0.250000000
     0.727479160         0.540175855         0.250000000
     0.714527488         0.560018957         0.375000000
     0.685556829         0.598732710         0.375000000
     0.669679046         0.617414773         0.250000000
     0.635524750         0.652974486         0.250000000
     0.617414773         0.669678986         0.375000000
     0.579569578         0.700530648         0.375000000
     0.560018957         0.714527428         0.250000000
     0.520137012         0.739322543         0.250000000
     0.499999970         0.750000000         0.375000000
     0.459824234         0.767654896         0.375000000
     0.439981073         0.774546385         0.250000000
     0.401267290         0.784289479         0.250000000
     0.382585227         0.787093759         0.375000000
     0.347025484         0.788499236         0.375000000
     0.330321014         0.787093759         0.250000000
     0.299469382         0.780100226         0.250000000
     0.285472602         0.774546385         0.375000000
     0.260677457         0.759459496         0.375000000
     0.250000000         0.750000000         0.250000000
     0.232345089         0.727479100         0.250000000
     0.225453645         0.714527428         0.375000000
     0.215710506         0.685556769         0.375000000
     0.212906286         0.669678986         0.250000000
     0.211500719         0.635524750         0.250000000
     0.212906256         0.617414773         0.375000000
     0.219899744         0.579569638         0.375000000
     0.225453615         0.560018957         0.250000000
     0.240540519         0.520137012         0.250000000
     0.249999985         0.500000000         0.375000000
     0.272520900         0.459824175         0.375000000
     0.285472542         0.439981043         0.250000000
     0.314443201         0.401267290         0.250000000
     0.330321014         0.382585257         0.375000000
     0.364475250         0.347025484         0.375000000
     0.382585257         0.330321014         0.250000000
     0.420430362         0.299469411         0.250000000
     0.439981073         0.285472572         0.375000000
     0.479863018         0.260677487         0.375000000
     0.500000000         0.250000000         0.250000000
     0.540175796         0.232345089         0.250000000
     0.560018957         0.225453630         0.375000000
     0.598732710         0.215710491         0.375000000
     0.617414773         0.212906256         0.250000000
     0.652974486         0.211500719         0.250000000
     0.669678986         0.212906256         0.375000000
     0.700530648         0.219899759         0.375000000
     0.714527428         0.225453630         0.250000000
     0.739322543         0.240540519         0.250000000
     0.749999940         0.250000000         0.375000000
     0.767654896         0.272520900         0.375000000
     0.774546385         0.285472572         0.250000000
     0.784289539         0.314443201         0.250000000
     0.787093759         0.330321014         0.375000000
     0.788499296         0.364475220         0.375000000
     0.787093759         0.382585257         0.250000000
     0.780100286         0.420430332         0.250000000
     0.774546444         0.439981043         0.375000000
     0.759459496         0.479863077         0.375000000
     0.750000000         0.500000000         0.500000000
     0.727479160         0.540175855         0.500000000
     0.714527488         0.560018957         0.625000000
     0.685556829         0.598732710         0.625000000
     0.669679046         0.617414773         0.500000000
     0.635524750         0.652974486         0.500000000
     0.617414773         0.669678986         0.625000000
     0.579569578         0.700530648         0.625000000
     0.560018957         0.714527428         0.500000000
     0.520137012         0.739322543         0.500000000
     0.499999970         0.750000000         0.625000000
     0.459824234         0.767654896         0.625000000
     0.439981073         0.774546385         0.500000000
     0.401267290         0.784289479         0.500000000
     0.382585227         0.787093759         0.625000000
     0.347025484         0.788499236         0.625000000
     0.330321014         0.787093759         0.500000000
     0.299469382         0.780100226         0.500000000
     0.285472602         0.774546385         0.625000000
     0.260677457         0.759459496         0.625000000
     0.250000000         0.750000000         0.500000000
     0.232345089         0.727479100         0.500000000
     0.225453645         0.714527428         0.625000000
     0.215710506         0.685556769         0.625000000
     0.212906286         0.669678986         0.500000000
     0.211500719         0.635524750         0.500000000
     0.212906256         0.617414773         0.625000000
     0.219899744         0.579569638         0.625000000
     0.225453615         0.560018957         0.500000000
     0.240540519         0.520137012         0.500000000
     0.249999985         0.500000000         0.625000000
     0.272520900         0.459824175         0.625000000
     0.285472542         0.439981043         0.500000000
     0.314443201         0.401267290         0.500000000
     0.330321014         0.382585257         0.625000000
     0.364475250         0.347025484         0.625000000
     0.382585257         0.330321014         0.500000000
     0.420430362         0.299469411         0.500000000
     0.439981073         0.285472572         0.625000000
     0.479863018         0.260677487         0.625000000
     0.500000000         0.250000000         0.500000000
     0.540175796         0.232345089         0.500000000
     0.560018957         0.225453630         0.625000000
     0.598732710         0.215710491         0.625000000
     0.617414773         0.212906256         0.500000000
     0.652974486         0.211500719         0.500000000
     0.669678986         0.212906256         0.625000000
     0.700530648         0.219899759         0.625000000
     0.714527428         0.225453630         0.500000000
     0.739322543         0.240540519         0.500000000
     0.749999940         0.250000000         0.625000000
     0.767654896         0.272520900         0.625000000
     0.774546385         0.285472572         0.500000000
     0.784289539         0.314443201         0.500000000
     0.787093759         0.330321014         0.625000000
     0.788499296         0.364475220         0.625000000
     0.787093759         0.382585257         0.500000000
     0.780100286         0.420430332         0.500000000
     0.774546444         0.439981043         0.625000000
     0.759459496         0.479863077         0.625000000
     0.750000000         0.500000000         0.750000000
     0.727479160         0.540175855         0.750000000
     0.714527488         0.560018957         0.875000000
     0.685556829         0.598732710         0.875000000
     0.669679046         0.617414773         0.750000000
     0.635524750         0.652974486         0.750000000
     0.617414773         0.669678986         0.875000000
     0.579569578         0.700530648         0.875000000
     0.560018957         0.714527428         0.750000000
     0.520137012         0.739322543         0.750000000
     0.499999970         0.750000000         0.875000000
     0.459824234         0.767654896         0.875000000
     0.439981073         0.774546385         0.750000000
     0.401267290         0.784289479         0.750000000
     0.382585227         0.787093759         0.875000000
     0.347025484         0.788499236         0.875000000
     0.330321014         0.787093759         0.750000000
     0.299469382         0.780100226         0.750000000
     0.285472602         0.774546385         0.875000000
     0.260677457         0.759459496         0.875000000
     0.250000000         0.750000000         0.750000000
     0.232345089         0.727479100         0.750000000
     0.225453645         0.714527428         0.875000000
     0.215710506         0.685556769         0.875000000
     0.212906286         0.669678986         0.750000000
     0.211500719         0.635524750         0.750000000
     0.212906256         0.617414773         0.875000000
     0.219899744         0.579569638         0.875000000
     0.225453615         0.560018957         0.750000000
     0.240540519         0.520137012         0.750000000
     0.249999985         0.500000000         0.875000000
     0.272520900         0.459824175         0.875000000
     0.285472542         0.439981043         0.750000000
     0.314443201         0.401267290         0.750000000
     0.330321014         0.382585257         0.875000000
     0.364475250         0.347025484         0.875000000
     0.382585257         0.330321014         0.750000000
     0.420430362         0.299469411         0.750000000
     0.439981073         0.285472572         0.875000000
     0.479863018         0.260677487         0.875000000
     0.500000000         0.250000000         0.750000000
     0.540175796         0.232345089         0.750000000
     0.560018957         0.225453630         0.875000000
     0.598732710         0.215710491         0.875000000
     0.617414773         0.212906256         0.750000000
     0.652974486         0.211500719         0.750000000
     0.669678986         0.212906256         0.875000000
     0.700530648         0.219899759         0.875000000
     0.714527428         0.225453630         0.750000000
     0.739322543         0.240540519         0.750000000
     0.749999940         0.250000000         0.875000000
     0.767654896         0.272520900         0.875000000
     0.774546385         0.285472572         0.750000000
     0.784289539         0.314443201         0.750000000
     0.787093759         0.330321014         0.875000000
     0.788499296         0.364475220         0.875000000
     0.787093759         0.382585257         0.750000000
     0.780100286         0.420430332         0.750000000
     0.774546444         0.439981043         0.875000000
     0.759459496         0.479863077         0.875000000
