# C nanotube of type armchair (5,5); rad
    1.000000000000000     
    13.7553360574381713    0.0001089701642824    0.0000000000000000
     6.8777623995997095   11.9124159782449546    0.0000000000000000
     0.0000000000000000    0.0000000000000000    9.8767766818115987
   C 
    80
Direct
  0.7498958216844537  0.5000410374479400 -0.0000000000000000
  0.6696526414961277  0.6173446954607974  0.0000000000000000
  0.6173446954607974  0.6696526414961277  0.1250000000000000
  0.5000410374479400  0.7498958816844515  0.1250000000000000
  0.4399662403605549  0.7744730773119143 -0.0000000000000000
  0.3304145925659089  0.7870021514244705  0.0000000000000000
  0.2855101682185140  0.7744517595204623  0.1250000000000000
  0.2255482704795402  0.7144898017814835  0.1250000000000000
  0.2129978635755272  0.6695853774340886  0.0000000000000000
  0.2255269376880834  0.5600337896394405 -0.0000000000000000
  0.2501041783155463  0.4999589625520600  0.1250000000000000
  0.3303473585038724  0.3826553045392026  0.1250000000000000
  0.3826553045392026  0.3303473585038724 -0.0000000000000000
  0.4999589625520600  0.2501041783155463  0.0000000000000000
  0.5600337296394426  0.2255269376880834  0.1250000000000000
  0.6695853774340886  0.2129978785755320  0.1250000000000000
  0.7144898017814835  0.2255482554795354  0.0000000000000000
  0.7744517595204623  0.2855101982185165  0.0000000000000000
  0.7870020914244726  0.3304146225659114  0.1250000000000000
  0.7744730173119164  0.4399662103605596  0.1250000000000000
  0.7498958216844537  0.5000410374479400  0.2500000000000000
  0.6696526414961277  0.6173446954607974  0.2500000000000000
  0.6173446954607974  0.6696526414961277  0.3750000000000000
  0.5000410374479400  0.7498958816844515  0.3750000000000000
  0.4399662403605549  0.7744730773119143  0.2500000000000000
  0.3304145925659089  0.7870021514244705  0.2500000000000000
  0.2855101682185140  0.7744517595204623  0.3750000000000000
  0.2255482704795402  0.7144898017814835  0.3750000000000000
  0.2129978635755272  0.6695853774340886  0.2500000000000000
  0.2255269376880834  0.5600337896394405  0.2500000000000000
  0.2501041783155463  0.4999589625520600  0.3750000000000000
  0.3303473585038724  0.3826553045392026  0.3750000000000000
  0.3826553045392026  0.3303473585038724  0.2500000000000000
  0.4999589625520600  0.2501041783155463  0.2500000000000000
  0.5600337296394426  0.2255269376880834  0.3750000000000000
  0.6695853774340886  0.2129978785755320  0.3750000000000000
  0.7144898017814835  0.2255482554795354  0.2500000000000000
  0.7744517595204623  0.2855101982185165  0.2500000000000000
  0.7870020914244726  0.3304146225659114  0.3750000000000000
  0.7744730173119164  0.4399662103605596  0.3750000000000000
  0.7498958216844537  0.5000410374479400  0.5000000000000000
  0.6696526414961277  0.6173446954607974  0.5000000000000000
  0.6173446954607974  0.6696526414961277  0.6250000000000000
  0.5000410374479400  0.7498958816844515  0.6250000000000000
  0.4399662403605549  0.7744730773119143  0.5000000000000000
  0.3304145925659089  0.7870021514244705  0.5000000000000000
  0.2855101682185140  0.7744517595204623  0.6250000000000000
  0.2255482704795402  0.7144898017814835  0.6250000000000000
  0.2129978635755272  0.6695853774340886  0.5000000000000000
  0.2255269376880834  0.5600337896394405  0.5000000000000000
  0.2501041783155463  0.4999589625520600  0.6250000000000000
  0.3303473585038724  0.3826553045392026  0.6250000000000000
  0.3826553045392026  0.3303473585038724  0.5000000000000000
  0.4999589625520600  0.2501041783155463  0.5000000000000000
  0.5600337296394426  0.2255269376880834  0.6250000000000000
  0.6695853774340886  0.2129978785755320  0.6250000000000000
  0.7144898017814835  0.2255482554795354  0.5000000000000000
  0.7744517595204623  0.2855101982185165  0.5000000000000000
  0.7870020914244726  0.3304146225659114  0.6250000000000000
  0.7744730173119164  0.4399662103605596  0.6250000000000000
  0.7498958216844537  0.5000410374479400  0.7500000000000000
  0.6696526414961277  0.6173446954607974  0.7500000000000000
  0.6173446954607974  0.6696526414961277  0.8750000000000000
  0.5000410374479400  0.7498958816844515  0.8750000000000000
  0.4399662403605549  0.7744730773119143  0.7500000000000000
  0.3304145925659089  0.7870021514244705  0.7500000000000000
  0.2855101682185140  0.7744517595204623  0.8750000000000000
  0.2255482704795402  0.7144898017814835  0.8750000000000000
  0.2129978635755272  0.6695853774340886  0.7500000000000000
  0.2255269376880834  0.5600337896394405  0.7500000000000000
  0.2501041783155463  0.4999589625520600  0.8750000000000000
  0.3303473585038724  0.3826553045392026  0.8750000000000000
  0.3826553045392026  0.3303473585038724  0.7500000000000000
  0.4999589625520600  0.2501041783155463  0.7500000000000000
  0.5600337296394426  0.2255269376880834  0.8750000000000000
  0.6695853774340886  0.2129978785755320  0.8750000000000000
  0.7144898017814835  0.2255482554795354  0.7500000000000000
  0.7744517595204623  0.2855101982185165  0.7500000000000000
  0.7870020914244726  0.3304146225659114  0.8750000000000000
  0.7744730173119164  0.4399662103605596  0.8750000000000000
 
  0.00000000E+00  0.00000000E+00  0.00000000E+00
  0.00000000E+00  0.00000000E+00  0.00000000E+00
  0.00000000E+00  0.00000000E+00  0.00000000E+00
  0.00000000E+00  0.00000000E+00  0.00000000E+00
  0.00000000E+00  0.00000000E+00  0.00000000E+00
  0.00000000E+00  0.00000000E+00  0.00000000E+00
  0.00000000E+00  0.00000000E+00  0.00000000E+00
  0.00000000E+00  0.00000000E+00  0.00000000E+00
  0.00000000E+00  0.00000000E+00  0.00000000E+00
  0.00000000E+00  0.00000000E+00  0.00000000E+00
  0.00000000E+00  0.00000000E+00  0.00000000E+00
  0.00000000E+00  0.00000000E+00  0.00000000E+00
  0.00000000E+00  0.00000000E+00  0.00000000E+00
  0.00000000E+00  0.00000000E+00  0.00000000E+00
  0.00000000E+00  0.00000000E+00  0.00000000E+00
  0.00000000E+00  0.00000000E+00  0.00000000E+00
  0.00000000E+00  0.00000000E+00  0.00000000E+00
  0.00000000E+00  0.00000000E+00  0.00000000E+00
  0.00000000E+00  0.00000000E+00  0.00000000E+00
  0.00000000E+00  0.00000000E+00  0.00000000E+00
  0.00000000E+00  0.00000000E+00  0.00000000E+00
  0.00000000E+00  0.00000000E+00  0.00000000E+00
  0.00000000E+00  0.00000000E+00  0.00000000E+00
  0.00000000E+00  0.00000000E+00  0.00000000E+00
  0.00000000E+00  0.00000000E+00  0.00000000E+00
  0.00000000E+00  0.00000000E+00  0.00000000E+00
  0.00000000E+00  0.00000000E+00  0.00000000E+00
  0.00000000E+00  0.00000000E+00  0.00000000E+00
  0.00000000E+00  0.00000000E+00  0.00000000E+00
  0.00000000E+00  0.00000000E+00  0.00000000E+00
  0.00000000E+00  0.00000000E+00  0.00000000E+00
  0.00000000E+00  0.00000000E+00  0.00000000E+00
  0.00000000E+00  0.00000000E+00  0.00000000E+00
  0.00000000E+00  0.00000000E+00  0.00000000E+00
  0.00000000E+00  0.00000000E+00  0.00000000E+00
  0.00000000E+00  0.00000000E+00  0.00000000E+00
  0.00000000E+00  0.00000000E+00  0.00000000E+00
  0.00000000E+00  0.00000000E+00  0.00000000E+00
  0.00000000E+00  0.00000000E+00  0.00000000E+00
  0.00000000E+00  0.00000000E+00  0.00000000E+00
  0.00000000E+00  0.00000000E+00  0.00000000E+00
  0.00000000E+00  0.00000000E+00  0.00000000E+00
  0.00000000E+00  0.00000000E+00  0.00000000E+00
  0.00000000E+00  0.00000000E+00  0.00000000E+00
  0.00000000E+00  0.00000000E+00  0.00000000E+00
  0.00000000E+00  0.00000000E+00  0.00000000E+00
  0.00000000E+00  0.00000000E+00  0.00000000E+00
  0.00000000E+00  0.00000000E+00  0.00000000E+00
  0.00000000E+00  0.00000000E+00  0.00000000E+00
  0.00000000E+00  0.00000000E+00  0.00000000E+00
  0.00000000E+00  0.00000000E+00  0.00000000E+00
  0.00000000E+00  0.00000000E+00  0.00000000E+00
  0.00000000E+00  0.00000000E+00  0.00000000E+00
  0.00000000E+00  0.00000000E+00  0.00000000E+00
  0.00000000E+00  0.00000000E+00  0.00000000E+00
  0.00000000E+00  0.00000000E+00  0.00000000E+00
  0.00000000E+00  0.00000000E+00  0.00000000E+00
  0.00000000E+00  0.00000000E+00  0.00000000E+00
  0.00000000E+00  0.00000000E+00  0.00000000E+00
  0.00000000E+00  0.00000000E+00  0.00000000E+00
  0.00000000E+00  0.00000000E+00  0.00000000E+00
  0.00000000E+00  0.00000000E+00  0.00000000E+00
  0.00000000E+00  0.00000000E+00  0.00000000E+00
  0.00000000E+00  0.00000000E+00  0.00000000E+00
  0.00000000E+00  0.00000000E+00  0.00000000E+00
  0.00000000E+00  0.00000000E+00  0.00000000E+00
  0.00000000E+00  0.00000000E+00  0.00000000E+00
  0.00000000E+00  0.00000000E+00  0.00000000E+00
  0.00000000E+00  0.00000000E+00  0.00000000E+00
  0.00000000E+00  0.00000000E+00  0.00000000E+00
  0.00000000E+00  0.00000000E+00  0.00000000E+00
  0.00000000E+00  0.00000000E+00  0.00000000E+00
  0.00000000E+00  0.00000000E+00  0.00000000E+00
  0.00000000E+00  0.00000000E+00  0.00000000E+00
  0.00000000E+00  0.00000000E+00  0.00000000E+00
  0.00000000E+00  0.00000000E+00  0.00000000E+00
  0.00000000E+00  0.00000000E+00  0.00000000E+00
  0.00000000E+00  0.00000000E+00  0.00000000E+00
  0.00000000E+00  0.00000000E+00  0.00000000E+00
  0.00000000E+00  0.00000000E+00  0.00000000E+00
